*SPEF "IEEE 1481-1998"
*DESIGN "VCO"
*DATE "2026-01-01T00:00:00"
*VENDOR "TR-1um flow"
*PROGRAM "extract_tr1um_parasitics"
*VERSION "3.0"
*DESIGN_FLOW "PIN_CAP NONE" "NAME_SCOPE LOCAL"
*DIVIDER /
*DELIMITER :
*BUS_DELIMITER [ ]
*T_UNIT 1 NS
*C_UNIT 1 PF
*R_UNIT 1 OHM
*L_UNIT 1 HENRY

*D_NET P1 2.113001926e-01
*CONN
*P P1 B
*CAP
1 P1:2 2.356256430e-02
2 P1:5 2.533683250e-03
3 P10:56 P1:2 2.083050000e-03
4 P10:59 P1:2 9.450000000e-07
5 P11:62 P1:2 1.083050000e-03
6 P11:65 P1:2 9.450000000e-07
7 P12:68 P1:2 8.305000000e-05
8 P12:71 P1:2 9.450000000e-07
9 P17:100 P1:0 1.212000000e-01
10 P18:102 P1:0 4.040000000e-03
11 P1:0 P8:42 4.040000000e-03
12 P1:2 P2:11 9.450000000e-07
13 P1:2 P2:8 1.008305000e-02
14 P1:2 P3:14 9.083050000e-03
15 P1:2 P3:17 9.450000000e-07
16 P1:2 P4:20 8.083050000e-03
17 P1:2 P4:23 9.450000000e-07
18 P1:2 P5:26 7.083050000e-03
19 P1:2 P5:29 9.450000000e-07
20 P1:2 P6:32 6.083050000e-03
21 P1:2 P6:35 9.450000000e-07
22 P1:2 P7:38 5.083050000e-03
23 P1:2 P7:41 9.450000000e-07
24 P1:2 P8:44 4.083050000e-03
25 P1:2 P8:47 9.450000000e-07
26 P1:2 P9:50 3.083050000e-03
27 P1:2 P9:53 9.450000000e-07
*RES
1 P1:0 P1:2 3.078625000e+01
2 P1:2 P1:1 3.078625000e+01
3 P1:3 P1:5 1.203650000e+00
4 P1:5 P1:4 1.203650000e+00
5 P1:0 P1:3 1.000000000e+00
6 P1 P1:3 0.000000000e+00
*END

*D_NET P10 1.569761476e-01
*CONN
*P P10 B
*CAP
1 P10:56 2.356256430e-02
2 P10:59 2.533683250e-03
3 P10:54 P17:100 1.616000000e-02
4 P10:54 P8:42 4.040000000e-03
5 P10:56 P11:62 1.008305000e-02
6 P10:56 P11:65 9.450000000e-07
7 P10:56 P12:68 9.083050000e-03
8 P10:56 P12:71 9.450000000e-07
9 P10:56 P13:74 8.083050000e-03
10 P10:56 P13:77 9.450000000e-07
11 P10:56 P14:80 7.083050000e-03
12 P10:56 P14:83 9.450000000e-07
13 P10:56 P15:86 6.083050000e-03
14 P10:56 P15:89 9.450000000e-07
15 P10:56 P16:92 5.083050000e-03
16 P10:56 P16:95 9.450000000e-07
17 P10:56 P17:101 9.450000000e-07
18 P10:56 P17:98 4.083050000e-03
19 P10:56 P18:104 3.083050000e-03
20 P10:56 P18:107 9.450000000e-07
21 P10:56 P19:110 2.083050000e-03
22 P10:56 P19:113 9.450000000e-07
23 P10:56 P1:2 2.083050000e-03
24 P10:56 P20:116 1.083050000e-03
25 P10:56 P20:119 9.450000000e-07
26 P10:56 P21:122 8.305000000e-05
27 P10:56 P21:125 9.450000000e-07
28 P10:56 P2:8 3.083050000e-03
29 P10:56 P3:14 4.083050000e-03
30 P10:56 P4:20 5.083050000e-03
31 P10:56 P5:26 6.083050000e-03
32 P10:56 P6:32 7.083050000e-03
33 P10:56 P7:38 8.083050000e-03
34 P10:56 P8:44 9.083050000e-03
35 P10:56 P9:50 1.008305000e-02
36 P10:59 P1:2 9.450000000e-07
37 P10:59 P2:8 9.450000000e-07
38 P10:59 P3:14 9.450000000e-07
39 P10:59 P4:20 9.450000000e-07
40 P10:59 P5:26 9.450000000e-07
41 P10:59 P6:32 9.450000000e-07
42 P10:59 P7:38 9.450000000e-07
43 P10:59 P8:44 9.450000000e-07
44 P10:59 P9:50 9.450000000e-07
*RES
1 P10:54 P10:56 3.078625000e+01
2 P10:56 P10:55 3.078625000e+01
3 P10:57 P10:59 1.203650000e+00
4 P10:59 P10:58 1.203650000e+00
5 P10:54 P10:57 1.000000000e+00
6 P10 P10:54 0.000000000e+00
*END

*D_NET P11 1.580601425e-01
*CONN
*P P11 B
*CAP
1 P11:62 2.356256430e-02
2 P11:65 2.533683250e-03
3 P10:56 P11:62 1.008305000e-02
4 P10:56 P11:65 9.450000000e-07
5 P11:60 P17:100 1.616000000e-02
6 P11:60 P2:10 4.040000000e-03
7 P11:62 P12:68 1.008305000e-02
8 P11:62 P12:71 9.450000000e-07
9 P11:62 P13:74 9.083050000e-03
10 P11:62 P13:77 9.450000000e-07
11 P11:62 P14:80 8.083050000e-03
12 P11:62 P14:83 9.450000000e-07
13 P11:62 P15:86 7.083050000e-03
14 P11:62 P15:89 9.450000000e-07
15 P11:62 P16:92 6.083050000e-03
16 P11:62 P16:95 9.450000000e-07
17 P11:62 P17:101 9.450000000e-07
18 P11:62 P17:98 5.083050000e-03
19 P11:62 P18:104 4.083050000e-03
20 P11:62 P18:107 9.450000000e-07
21 P11:62 P19:110 3.083050000e-03
22 P11:62 P19:113 9.450000000e-07
23 P11:62 P1:2 1.083050000e-03
24 P11:62 P20:116 2.083050000e-03
25 P11:62 P20:119 9.450000000e-07
26 P11:62 P21:122 1.083050000e-03
27 P11:62 P21:125 9.450000000e-07
28 P11:62 P22:128 8.305000000e-05
29 P11:62 P22:131 9.450000000e-07
30 P11:62 P2:8 2.083050000e-03
31 P11:62 P3:14 3.083050000e-03
32 P11:62 P4:20 4.083050000e-03
33 P11:62 P5:26 5.083050000e-03
34 P11:62 P6:32 6.083050000e-03
35 P11:62 P7:38 7.083050000e-03
36 P11:62 P8:44 8.083050000e-03
37 P11:62 P9:50 9.083050000e-03
38 P11:65 P1:2 9.450000000e-07
39 P11:65 P2:8 9.450000000e-07
40 P11:65 P3:14 9.450000000e-07
41 P11:65 P4:20 9.450000000e-07
42 P11:65 P5:26 9.450000000e-07
43 P11:65 P6:32 9.450000000e-07
44 P11:65 P7:38 9.450000000e-07
45 P11:65 P8:44 9.450000000e-07
46 P11:65 P9:50 9.450000000e-07
*RES
1 P11:60 P11:62 3.078625000e+01
2 P11:62 P11:61 3.078625000e+01
3 P11:63 P11:65 1.203650000e+00
4 P11:65 P11:64 1.203650000e+00
5 P11:60 P11:63 1.000000000e+00
6 P11 P11:63 0.000000000e+00
*END

*D_NET P12 1.581441375e-01
*CONN
*P P12 B
*CAP
1 P12:68 2.356256430e-02
2 P12:71 2.533683250e-03
3 P10:56 P12:68 9.083050000e-03
4 P10:56 P12:71 9.450000000e-07
5 P11:62 P12:68 1.008305000e-02
6 P11:62 P12:71 9.450000000e-07
7 P12:66 P17:100 1.616000000e-02
8 P12:66 P3:12 4.040000000e-03
9 P12:68 P13:74 1.008305000e-02
10 P12:68 P13:77 9.450000000e-07
11 P12:68 P14:80 9.083050000e-03
12 P12:68 P14:83 9.450000000e-07
13 P12:68 P15:86 8.083050000e-03
14 P12:68 P15:89 9.450000000e-07
15 P12:68 P16:92 7.083050000e-03
16 P12:68 P16:95 9.450000000e-07
17 P12:68 P17:101 9.450000000e-07
18 P12:68 P17:98 6.083050000e-03
19 P12:68 P18:104 5.083050000e-03
20 P12:68 P18:107 9.450000000e-07
21 P12:68 P19:110 4.083050000e-03
22 P12:68 P19:113 9.450000000e-07
23 P12:68 P1:2 8.305000000e-05
24 P12:68 P20:116 3.083050000e-03
25 P12:68 P20:119 9.450000000e-07
26 P12:68 P21:122 2.083050000e-03
27 P12:68 P21:125 9.450000000e-07
28 P12:68 P22:128 1.083050000e-03
29 P12:68 P22:131 9.450000000e-07
30 P12:68 P23:134 8.305000000e-05
31 P12:68 P23:137 9.450000000e-07
32 P12:68 P2:8 1.083050000e-03
33 P12:68 P3:14 2.083050000e-03
34 P12:68 P4:20 3.083050000e-03
35 P12:68 P5:26 4.083050000e-03
36 P12:68 P6:32 5.083050000e-03
37 P12:68 P7:38 6.083050000e-03
38 P12:68 P8:44 7.083050000e-03
39 P12:68 P9:50 8.083050000e-03
40 P12:71 P1:2 9.450000000e-07
41 P12:71 P2:8 9.450000000e-07
42 P12:71 P3:14 9.450000000e-07
43 P12:71 P4:20 9.450000000e-07
44 P12:71 P5:26 9.450000000e-07
45 P12:71 P6:32 9.450000000e-07
46 P12:71 P7:38 9.450000000e-07
47 P12:71 P8:44 9.450000000e-07
48 P12:71 P9:50 9.450000000e-07
*RES
1 P12:66 P12:68 3.078625000e+01
2 P12:68 P12:67 3.078625000e+01
3 P12:69 P12:71 1.203650000e+00
4 P12:71 P12:70 1.203650000e+00
5 P12:66 P12:69 1.000000000e+00
6 P12 P12:66 0.000000000e+00
*END

*D_NET P13 1.581441375e-01
*CONN
*P P13 B
*CAP
1 P13:74 2.356256430e-02
2 P13:77 2.533683250e-03
3 P10:56 P13:74 8.083050000e-03
4 P10:56 P13:77 9.450000000e-07
5 P11:62 P13:74 9.083050000e-03
6 P11:62 P13:77 9.450000000e-07
7 P12:68 P13:74 1.008305000e-02
8 P12:68 P13:77 9.450000000e-07
9 P13:72 P17:100 1.616000000e-02
10 P13:72 P4:18 4.040000000e-03
11 P13:74 P14:80 1.008305000e-02
12 P13:74 P14:83 9.450000000e-07
13 P13:74 P15:86 9.083050000e-03
14 P13:74 P15:89 9.450000000e-07
15 P13:74 P16:92 8.083050000e-03
16 P13:74 P16:95 9.450000000e-07
17 P13:74 P17:101 9.450000000e-07
18 P13:74 P17:98 7.083050000e-03
19 P13:74 P18:104 6.083050000e-03
20 P13:74 P18:107 9.450000000e-07
21 P13:74 P19:110 5.083050000e-03
22 P13:74 P19:113 9.450000000e-07
23 P13:74 P20:116 4.083050000e-03
24 P13:74 P20:119 9.450000000e-07
25 P13:74 P21:122 3.083050000e-03
26 P13:74 P21:125 9.450000000e-07
27 P13:74 P22:128 2.083050000e-03
28 P13:74 P22:131 9.450000000e-07
29 P13:74 P23:134 1.083050000e-03
30 P13:74 P23:137 9.450000000e-07
31 P13:74 P24:140 8.305000000e-05
32 P13:74 P24:143 9.450000000e-07
33 P13:74 P2:8 8.305000000e-05
34 P13:74 P3:14 1.083050000e-03
35 P13:74 P4:20 2.083050000e-03
36 P13:74 P5:26 3.083050000e-03
37 P13:74 P6:32 4.083050000e-03
38 P13:74 P7:38 5.083050000e-03
39 P13:74 P8:44 6.083050000e-03
40 P13:74 P9:50 7.083050000e-03
41 P13:77 P2:8 9.450000000e-07
42 P13:77 P3:14 9.450000000e-07
43 P13:77 P4:20 9.450000000e-07
44 P13:77 P5:26 9.450000000e-07
45 P13:77 P6:32 9.450000000e-07
46 P13:77 P7:38 9.450000000e-07
47 P13:77 P8:44 9.450000000e-07
48 P13:77 P9:50 9.450000000e-07
*RES
1 P13:72 P13:74 3.078625000e+01
2 P13:74 P13:73 3.078625000e+01
3 P13:75 P13:77 1.203650000e+00
4 P13:77 P13:76 1.203650000e+00
5 P13:72 P13:75 1.000000000e+00
6 P13 P13:72 0.000000000e+00
*END

*D_NET P14 1.581441375e-01
*CONN
*P P14 B
*CAP
1 P14:80 2.356256430e-02
2 P14:83 2.533683250e-03
3 P10:56 P14:80 7.083050000e-03
4 P10:56 P14:83 9.450000000e-07
5 P11:62 P14:80 8.083050000e-03
6 P11:62 P14:83 9.450000000e-07
7 P12:68 P14:80 9.083050000e-03
8 P12:68 P14:83 9.450000000e-07
9 P13:74 P14:80 1.008305000e-02
10 P13:74 P14:83 9.450000000e-07
11 P14:78 P17:100 1.616000000e-02
12 P14:78 P5:24 4.040000000e-03
13 P14:80 P15:86 1.008305000e-02
14 P14:80 P15:89 9.450000000e-07
15 P14:80 P16:92 9.083050000e-03
16 P14:80 P16:95 9.450000000e-07
17 P14:80 P17:101 9.450000000e-07
18 P14:80 P17:98 8.083050000e-03
19 P14:80 P18:104 7.083050000e-03
20 P14:80 P18:107 9.450000000e-07
21 P14:80 P19:110 6.083050000e-03
22 P14:80 P19:113 9.450000000e-07
23 P14:80 P20:116 5.083050000e-03
24 P14:80 P20:119 9.450000000e-07
25 P14:80 P21:122 4.083050000e-03
26 P14:80 P21:125 9.450000000e-07
27 P14:80 P22:128 3.083050000e-03
28 P14:80 P22:131 9.450000000e-07
29 P14:80 P23:134 2.083050000e-03
30 P14:80 P23:137 9.450000000e-07
31 P14:80 P24:140 1.083050000e-03
32 P14:80 P24:143 9.450000000e-07
33 P14:80 P25:146 8.305000000e-05
34 P14:80 P25:149 9.450000000e-07
35 P14:80 P3:14 8.305000000e-05
36 P14:80 P4:20 1.083050000e-03
37 P14:80 P5:26 2.083050000e-03
38 P14:80 P6:32 3.083050000e-03
39 P14:80 P7:38 4.083050000e-03
40 P14:80 P8:44 5.083050000e-03
41 P14:80 P9:50 6.083050000e-03
42 P14:83 P3:14 9.450000000e-07
43 P14:83 P4:20 9.450000000e-07
44 P14:83 P5:26 9.450000000e-07
45 P14:83 P6:32 9.450000000e-07
46 P14:83 P7:38 9.450000000e-07
47 P14:83 P8:44 9.450000000e-07
48 P14:83 P9:50 9.450000000e-07
*RES
1 P14:78 P14:80 3.078625000e+01
2 P14:80 P14:79 3.078625000e+01
3 P14:81 P14:83 1.203650000e+00
4 P14:83 P14:82 1.203650000e+00
5 P14:78 P14:81 1.000000000e+00
6 P14 P14:78 0.000000000e+00
*END

*D_NET P15 1.581441375e-01
*CONN
*P P15 B
*CAP
1 P15:86 2.356256430e-02
2 P15:89 2.533683250e-03
3 P10:56 P15:86 6.083050000e-03
4 P10:56 P15:89 9.450000000e-07
5 P11:62 P15:86 7.083050000e-03
6 P11:62 P15:89 9.450000000e-07
7 P12:68 P15:86 8.083050000e-03
8 P12:68 P15:89 9.450000000e-07
9 P13:74 P15:86 9.083050000e-03
10 P13:74 P15:89 9.450000000e-07
11 P14:80 P15:86 1.008305000e-02
12 P14:80 P15:89 9.450000000e-07
13 P15:84 P17:100 1.616000000e-02
14 P15:84 P6:30 4.040000000e-03
15 P15:86 P16:92 1.008305000e-02
16 P15:86 P16:95 9.450000000e-07
17 P15:86 P17:101 9.450000000e-07
18 P15:86 P17:98 9.083050000e-03
19 P15:86 P18:104 8.083050000e-03
20 P15:86 P18:107 9.450000000e-07
21 P15:86 P19:110 7.083050000e-03
22 P15:86 P19:113 9.450000000e-07
23 P15:86 P20:116 6.083050000e-03
24 P15:86 P20:119 9.450000000e-07
25 P15:86 P21:122 5.083050000e-03
26 P15:86 P21:125 9.450000000e-07
27 P15:86 P22:128 4.083050000e-03
28 P15:86 P22:131 9.450000000e-07
29 P15:86 P23:134 3.083050000e-03
30 P15:86 P23:137 9.450000000e-07
31 P15:86 P24:140 2.083050000e-03
32 P15:86 P24:143 9.450000000e-07
33 P15:86 P25:146 1.083050000e-03
34 P15:86 P25:149 9.450000000e-07
35 P15:86 P26:152 8.305000000e-05
36 P15:86 P26:155 9.450000000e-07
37 P15:86 P4:20 8.305000000e-05
38 P15:86 P5:26 1.083050000e-03
39 P15:86 P6:32 2.083050000e-03
40 P15:86 P7:38 3.083050000e-03
41 P15:86 P8:44 4.083050000e-03
42 P15:86 P9:50 5.083050000e-03
43 P15:89 P4:20 9.450000000e-07
44 P15:89 P5:26 9.450000000e-07
45 P15:89 P6:32 9.450000000e-07
46 P15:89 P7:38 9.450000000e-07
47 P15:89 P8:44 9.450000000e-07
48 P15:89 P9:50 9.450000000e-07
*RES
1 P15:84 P15:86 3.078625000e+01
2 P15:86 P15:85 3.078625000e+01
3 P15:87 P15:89 1.203650000e+00
4 P15:89 P15:88 1.203650000e+00
5 P15:84 P15:87 1.000000000e+00
6 P15 P15:84 0.000000000e+00
*END

*D_NET P16 1.581441375e-01
*CONN
*P P16 B
*CAP
1 P16:92 2.356256430e-02
2 P16:95 2.533683250e-03
3 P10:56 P16:92 5.083050000e-03
4 P10:56 P16:95 9.450000000e-07
5 P11:62 P16:92 6.083050000e-03
6 P11:62 P16:95 9.450000000e-07
7 P12:68 P16:92 7.083050000e-03
8 P12:68 P16:95 9.450000000e-07
9 P13:74 P16:92 8.083050000e-03
10 P13:74 P16:95 9.450000000e-07
11 P14:80 P16:92 9.083050000e-03
12 P14:80 P16:95 9.450000000e-07
13 P15:86 P16:92 1.008305000e-02
14 P15:86 P16:95 9.450000000e-07
15 P16:90 P17:100 1.616000000e-02
16 P16:90 P7:36 4.040000000e-03
17 P16:92 P17:101 9.450000000e-07
18 P16:92 P17:98 1.008305000e-02
19 P16:92 P18:104 9.083050000e-03
20 P16:92 P18:107 9.450000000e-07
21 P16:92 P19:110 8.083050000e-03
22 P16:92 P19:113 9.450000000e-07
23 P16:92 P20:116 7.083050000e-03
24 P16:92 P20:119 9.450000000e-07
25 P16:92 P21:122 6.083050000e-03
26 P16:92 P21:125 9.450000000e-07
27 P16:92 P22:128 5.083050000e-03
28 P16:92 P22:131 9.450000000e-07
29 P16:92 P23:134 4.083050000e-03
30 P16:92 P23:137 9.450000000e-07
31 P16:92 P24:140 3.083050000e-03
32 P16:92 P24:143 9.450000000e-07
33 P16:92 P25:146 2.083050000e-03
34 P16:92 P25:149 9.450000000e-07
35 P16:92 P26:152 1.083050000e-03
36 P16:92 P26:155 9.450000000e-07
37 P16:92 P27:158 8.305000000e-05
38 P16:92 P27:161 9.450000000e-07
39 P16:92 P5:26 8.305000000e-05
40 P16:92 P6:32 1.083050000e-03
41 P16:92 P7:38 2.083050000e-03
42 P16:92 P8:44 3.083050000e-03
43 P16:92 P9:50 4.083050000e-03
44 P16:95 P5:26 9.450000000e-07
45 P16:95 P6:32 9.450000000e-07
46 P16:95 P7:38 9.450000000e-07
47 P16:95 P8:44 9.450000000e-07
48 P16:95 P9:50 9.450000000e-07
*RES
1 P16:90 P16:92 3.078625000e+01
2 P16:92 P16:91 3.078625000e+01
3 P16:93 P16:95 1.203650000e+00
4 P16:95 P16:94 1.203650000e+00
5 P16:90 P16:93 1.000000000e+00
6 P16 P16:93 0.000000000e+00
*END

*D_NET P17 3.803441376e-01
*CONN
*P P17 B
*CAP
1 P17:101 2.533683250e-03
2 P17:98 2.356256430e-02
3 P10:54 P17:100 1.616000000e-02
4 P10:56 P17:101 9.450000000e-07
5 P10:56 P17:98 4.083050000e-03
6 P11:60 P17:100 1.616000000e-02
7 P11:62 P17:101 9.450000000e-07
8 P11:62 P17:98 5.083050000e-03
9 P12:66 P17:100 1.616000000e-02
10 P12:68 P17:101 9.450000000e-07
11 P12:68 P17:98 6.083050000e-03
12 P13:72 P17:100 1.616000000e-02
13 P13:74 P17:101 9.450000000e-07
14 P13:74 P17:98 7.083050000e-03
15 P14:78 P17:100 1.616000000e-02
16 P14:80 P17:101 9.450000000e-07
17 P14:80 P17:98 8.083050000e-03
18 P15:84 P17:100 1.616000000e-02
19 P15:86 P17:101 9.450000000e-07
20 P15:86 P17:98 9.083050000e-03
21 P16:90 P17:100 1.616000000e-02
22 P16:92 P17:101 9.450000000e-07
23 P16:92 P17:98 1.008305000e-02
24 P17:100 P1:0 1.212000000e-01
25 P17:100 P9:48 8.080000000e-03
26 P17:101 P6:32 9.450000000e-07
27 P17:101 P7:38 9.450000000e-07
28 P17:101 P8:44 9.450000000e-07
29 P17:101 P9:50 9.450000000e-07
30 P17:98 P18:104 1.008305000e-02
31 P17:98 P18:107 9.450000000e-07
32 P17:98 P19:110 9.083050000e-03
33 P17:98 P19:113 9.450000000e-07
34 P17:98 P20:116 8.083050000e-03
35 P17:98 P20:119 9.450000000e-07
36 P17:98 P21:122 7.083050000e-03
37 P17:98 P21:125 9.450000000e-07
38 P17:98 P22:128 6.083050000e-03
39 P17:98 P22:131 9.450000000e-07
40 P17:98 P23:134 5.083050000e-03
41 P17:98 P23:137 9.450000000e-07
42 P17:98 P24:140 4.083050000e-03
43 P17:98 P24:143 9.450000000e-07
44 P17:98 P25:146 3.083050000e-03
45 P17:98 P25:149 9.450000000e-07
46 P17:98 P26:152 2.083050000e-03
47 P17:98 P26:155 9.450000000e-07
48 P17:98 P27:158 1.083050000e-03
49 P17:98 P27:161 9.450000000e-07
50 P17:98 P28:164 8.305000000e-05
51 P17:98 P28:167 9.450000000e-07
52 P17:98 P6:32 8.305000000e-05
53 P17:98 P7:38 1.083050000e-03
54 P17:98 P8:44 2.083050000e-03
55 P17:98 P9:50 3.083050000e-03
*RES
1 P17:96 P17:98 3.078625000e+01
2 P17:98 P17:97 3.078625000e+01
3 P17:99 P17:101 1.203650000e+00
4 P17:101 P17:100 1.203650000e+00
5 P17:96 P17:99 1.000000000e+00
6 P17 P17:99 0.000000000e+00
*END

*D_NET P18 1.663541375e-01
*CONN
*P P18 B
*CAP
1 P18:104 2.356256430e-02
2 P18:107 2.533683250e-03
3 P10:56 P18:104 3.083050000e-03
4 P10:56 P18:107 9.450000000e-07
5 P11:62 P18:104 4.083050000e-03
6 P11:62 P18:107 9.450000000e-07
7 P12:68 P18:104 5.083050000e-03
8 P12:68 P18:107 9.450000000e-07
9 P13:74 P18:104 6.083050000e-03
10 P13:74 P18:107 9.450000000e-07
11 P14:80 P18:104 7.083050000e-03
12 P14:80 P18:107 9.450000000e-07
13 P15:86 P18:104 8.083050000e-03
14 P15:86 P18:107 9.450000000e-07
15 P16:92 P18:104 9.083050000e-03
16 P16:92 P18:107 9.450000000e-07
17 P17:98 P18:104 1.008305000e-02
18 P17:98 P18:107 9.450000000e-07
19 P18:102 P19:108 9.470000000e-03
20 P18:102 P1:0 4.040000000e-03
21 P18:102 P28:162 5.430000000e-03
22 P18:102 P8:42 9.470000000e-03
23 P18:104 P19:110 1.008305000e-02
24 P18:104 P19:113 9.450000000e-07
25 P18:104 P20:116 9.083050000e-03
26 P18:104 P20:119 9.450000000e-07
27 P18:104 P21:122 8.083050000e-03
28 P18:104 P21:125 9.450000000e-07
29 P18:104 P22:128 7.083050000e-03
30 P18:104 P22:131 9.450000000e-07
31 P18:104 P23:134 6.083050000e-03
32 P18:104 P23:137 9.450000000e-07
33 P18:104 P24:140 5.083050000e-03
34 P18:104 P24:143 9.450000000e-07
35 P18:104 P25:146 4.083050000e-03
36 P18:104 P25:149 9.450000000e-07
37 P18:104 P26:152 3.083050000e-03
38 P18:104 P26:155 9.450000000e-07
39 P18:104 P27:158 2.083050000e-03
40 P18:104 P27:161 9.450000000e-07
41 P18:104 P28:164 1.083050000e-03
42 P18:104 P28:167 9.450000000e-07
43 P18:104 P29:170 8.305000000e-05
44 P18:104 P29:173 9.450000000e-07
45 P18:104 P7:38 8.305000000e-05
46 P18:104 P8:44 1.083050000e-03
47 P18:104 P9:50 2.083050000e-03
48 P18:107 P7:38 9.450000000e-07
49 P18:107 P8:44 9.450000000e-07
50 P18:107 P9:50 9.450000000e-07
*RES
1 P18:102 P18:104 3.078625000e+01
2 P18:104 P18:103 3.078625000e+01
3 P18:105 P18:107 1.203650000e+00
4 P18:107 P18:106 1.203650000e+00
5 P18:102 P18:105 1.000000000e+00
6 P18 P18:102 0.000000000e+00
*END

*D_NET P19 1.474141375e-01
*CONN
*P P19 B
*CAP
1 P19:110 2.356256430e-02
2 P19:113 2.533683250e-03
3 P10:56 P19:110 2.083050000e-03
4 P10:56 P19:113 9.450000000e-07
5 P11:62 P19:110 3.083050000e-03
6 P11:62 P19:113 9.450000000e-07
7 P12:68 P19:110 4.083050000e-03
8 P12:68 P19:113 9.450000000e-07
9 P13:74 P19:110 5.083050000e-03
10 P13:74 P19:113 9.450000000e-07
11 P14:80 P19:110 6.083050000e-03
12 P14:80 P19:113 9.450000000e-07
13 P15:86 P19:110 7.083050000e-03
14 P15:86 P19:113 9.450000000e-07
15 P16:92 P19:110 8.083050000e-03
16 P16:92 P19:113 9.450000000e-07
17 P17:98 P19:110 9.083050000e-03
18 P17:98 P19:113 9.450000000e-07
19 P18:102 P19:108 9.470000000e-03
20 P18:104 P19:110 1.008305000e-02
21 P18:104 P19:113 9.450000000e-07
22 P19:110 P20:116 1.008305000e-02
23 P19:110 P20:119 9.450000000e-07
24 P19:110 P21:122 9.083050000e-03
25 P19:110 P21:125 9.450000000e-07
26 P19:110 P22:128 8.083050000e-03
27 P19:110 P22:131 9.450000000e-07
28 P19:110 P23:134 7.083050000e-03
29 P19:110 P23:137 9.450000000e-07
30 P19:110 P24:140 6.083050000e-03
31 P19:110 P24:143 9.450000000e-07
32 P19:110 P25:146 5.083050000e-03
33 P19:110 P25:149 9.450000000e-07
34 P19:110 P26:152 4.083050000e-03
35 P19:110 P26:155 9.450000000e-07
36 P19:110 P27:158 3.083050000e-03
37 P19:110 P27:161 9.450000000e-07
38 P19:110 P28:164 2.083050000e-03
39 P19:110 P28:167 9.450000000e-07
40 P19:110 P29:170 1.083050000e-03
41 P19:110 P29:173 9.450000000e-07
42 P19:110 P30:176 8.305000000e-05
43 P19:110 P30:179 9.450000000e-07
44 P19:110 P8:44 8.305000000e-05
45 P19:110 P9:50 1.083050000e-03
46 P19:113 P8:44 9.450000000e-07
47 P19:113 P9:50 9.450000000e-07
*RES
1 P19:108 P19:110 3.078625000e+01
2 P19:110 P19:109 3.078625000e+01
3 P19:111 P19:113 1.203650000e+00
4 P19:113 P19:112 1.203650000e+00
5 P19:108 P19:111 1.000000000e+00
6 P19 P19:108 0.000000000e+00
*END

*D_NET P2 1.205141876e-01
*CONN
*P P2 B
*CAP
1 P2:11 2.533683250e-03
2 P2:8 2.356256430e-02
3 P10:56 P2:8 3.083050000e-03
4 P10:59 P2:8 9.450000000e-07
5 P11:60 P2:10 4.040000000e-03
6 P11:62 P2:8 2.083050000e-03
7 P11:65 P2:8 9.450000000e-07
8 P12:68 P2:8 1.083050000e-03
9 P12:71 P2:8 9.450000000e-07
10 P13:74 P2:8 8.305000000e-05
11 P13:77 P2:8 9.450000000e-07
12 P1:2 P2:11 9.450000000e-07
13 P1:2 P2:8 1.008305000e-02
14 P23:132 P2:10 5.430000000e-03
15 P2:10 P3:12 9.470000000e-03
16 P2:10 P8:42 9.470000000e-03
17 P2:8 P3:14 1.008305000e-02
18 P2:8 P3:17 9.450000000e-07
19 P2:8 P4:20 9.083050000e-03
20 P2:8 P4:23 9.450000000e-07
21 P2:8 P5:26 8.083050000e-03
22 P2:8 P5:29 9.450000000e-07
23 P2:8 P6:32 7.083050000e-03
24 P2:8 P6:35 9.450000000e-07
25 P2:8 P7:38 6.083050000e-03
26 P2:8 P7:41 9.450000000e-07
27 P2:8 P8:44 5.083050000e-03
28 P2:8 P8:47 9.450000000e-07
29 P2:8 P9:50 4.083050000e-03
30 P2:8 P9:53 9.450000000e-07
*RES
1 P2:6 P2:8 3.078625000e+01
2 P2:8 P2:7 3.078625000e+01
3 P2:9 P2:11 1.203650000e+00
4 P2:11 P2:10 1.203650000e+00
5 P2:6 P2:9 1.000000000e+00
6 P2 P2:9 0.000000000e+00
*END

*D_NET P20 1.650101425e-01
*CONN
*P P20 B
*CAP
1 P20:116 2.356256430e-02
2 P20:119 2.533683250e-03
3 P10:56 P20:116 1.083050000e-03
4 P10:56 P20:119 9.450000000e-07
5 P11:62 P20:116 2.083050000e-03
6 P11:62 P20:119 9.450000000e-07
7 P12:68 P20:116 3.083050000e-03
8 P12:68 P20:119 9.450000000e-07
9 P13:74 P20:116 4.083050000e-03
10 P13:74 P20:119 9.450000000e-07
11 P14:80 P20:116 5.083050000e-03
12 P14:80 P20:119 9.450000000e-07
13 P15:86 P20:116 6.083050000e-03
14 P15:86 P20:119 9.450000000e-07
15 P16:92 P20:116 7.083050000e-03
16 P16:92 P20:119 9.450000000e-07
17 P17:98 P20:116 8.083050000e-03
18 P17:98 P20:119 9.450000000e-07
19 P18:104 P20:116 9.083050000e-03
20 P18:104 P20:119 9.450000000e-07
21 P19:110 P20:116 1.008305000e-02
22 P19:110 P20:119 9.450000000e-07
23 P20:114 P22:126 2.172000000e-02
24 P20:114 P8:42 5.430000000e-03
25 P20:116 P21:122 1.008305000e-02
26 P20:116 P21:125 9.450000000e-07
27 P20:116 P22:128 9.083050000e-03
28 P20:116 P22:131 9.450000000e-07
29 P20:116 P23:134 8.083050000e-03
30 P20:116 P23:137 9.450000000e-07
31 P20:116 P24:140 7.083050000e-03
32 P20:116 P24:143 9.450000000e-07
33 P20:116 P25:146 6.083050000e-03
34 P20:116 P25:149 9.450000000e-07
35 P20:116 P26:152 5.083050000e-03
36 P20:116 P26:155 9.450000000e-07
37 P20:116 P27:158 4.083050000e-03
38 P20:116 P27:161 9.450000000e-07
39 P20:116 P28:164 3.083050000e-03
40 P20:116 P28:167 9.450000000e-07
41 P20:116 P29:170 2.083050000e-03
42 P20:116 P29:173 9.450000000e-07
43 P20:116 P30:176 1.083050000e-03
44 P20:116 P30:179 9.450000000e-07
45 P20:116 P9:50 8.305000000e-05
46 P20:119 P9:50 9.450000000e-07
*RES
1 P20:114 P20:116 3.078625000e+01
2 P20:116 P20:115 3.078625000e+01
3 P20:117 P20:119 1.203650000e+00
4 P20:119 P20:118 1.203650000e+00
5 P20:114 P20:117 1.000000000e+00
6 P20 P20:117 0.000000000e+00
*END

*D_NET P21 1.639261475e-01
*CONN
*P P21 B
*CAP
1 P21:122 2.356256430e-02
2 P21:125 2.533683250e-03
3 P10:56 P21:122 8.305000000e-05
4 P10:56 P21:125 9.450000000e-07
5 P11:62 P21:122 1.083050000e-03
6 P11:62 P21:125 9.450000000e-07
7 P12:68 P21:122 2.083050000e-03
8 P12:68 P21:125 9.450000000e-07
9 P13:74 P21:122 3.083050000e-03
10 P13:74 P21:125 9.450000000e-07
11 P14:80 P21:122 4.083050000e-03
12 P14:80 P21:125 9.450000000e-07
13 P15:86 P21:122 5.083050000e-03
14 P15:86 P21:125 9.450000000e-07
15 P16:92 P21:122 6.083050000e-03
16 P16:92 P21:125 9.450000000e-07
17 P17:98 P21:122 7.083050000e-03
18 P17:98 P21:125 9.450000000e-07
19 P18:104 P21:122 8.083050000e-03
20 P18:104 P21:125 9.450000000e-07
21 P19:110 P21:122 9.083050000e-03
22 P19:110 P21:125 9.450000000e-07
23 P20:116 P21:122 1.008305000e-02
24 P20:116 P21:125 9.450000000e-07
25 P21:120 P22:126 2.172000000e-02
26 P21:120 P5:24 5.430000000e-03
27 P21:122 P22:128 1.008305000e-02
28 P21:122 P22:131 9.450000000e-07
29 P21:122 P23:134 9.083050000e-03
30 P21:122 P23:137 9.450000000e-07
31 P21:122 P24:140 8.083050000e-03
32 P21:122 P24:143 9.450000000e-07
33 P21:122 P25:146 7.083050000e-03
34 P21:122 P25:149 9.450000000e-07
35 P21:122 P26:152 6.083050000e-03
36 P21:122 P26:155 9.450000000e-07
37 P21:122 P27:158 5.083050000e-03
38 P21:122 P27:161 9.450000000e-07
39 P21:122 P28:164 4.083050000e-03
40 P21:122 P28:167 9.450000000e-07
41 P21:122 P29:170 3.083050000e-03
42 P21:122 P29:173 9.450000000e-07
43 P21:122 P30:176 2.083050000e-03
44 P21:122 P30:179 9.450000000e-07
*RES
1 P21:120 P21:122 3.078625000e+01
2 P21:122 P21:121 3.078625000e+01
3 P21:123 P21:125 1.203650000e+00
4 P21:125 P21:124 1.203650000e+00
5 P21:120 P21:123 1.000000000e+00
6 P21 P21:123 0.000000000e+00
*END

*D_NET P22 4.685721525e-01
*CONN
*P P22 B
*CAP
1 P22:128 2.356256430e-02
2 P22:131 2.533683250e-03
3 P11:62 P22:128 8.305000000e-05
4 P11:62 P22:131 9.450000000e-07
5 P12:68 P22:128 1.083050000e-03
6 P12:68 P22:131 9.450000000e-07
7 P13:74 P22:128 2.083050000e-03
8 P13:74 P22:131 9.450000000e-07
9 P14:80 P22:128 3.083050000e-03
10 P14:80 P22:131 9.450000000e-07
11 P15:86 P22:128 4.083050000e-03
12 P15:86 P22:131 9.450000000e-07
13 P16:92 P22:128 5.083050000e-03
14 P16:92 P22:131 9.450000000e-07
15 P17:98 P22:128 6.083050000e-03
16 P17:98 P22:131 9.450000000e-07
17 P18:104 P22:128 7.083050000e-03
18 P18:104 P22:131 9.450000000e-07
19 P19:110 P22:128 8.083050000e-03
20 P19:110 P22:131 9.450000000e-07
21 P20:114 P22:126 2.172000000e-02
22 P20:116 P22:128 9.083050000e-03
23 P20:116 P22:131 9.450000000e-07
24 P21:120 P22:126 2.172000000e-02
25 P21:122 P22:128 1.008305000e-02
26 P21:122 P22:131 9.450000000e-07
27 P22:126 P23:132 2.172000000e-02
28 P22:126 P24:138 2.172000000e-02
29 P22:126 P25:144 2.172000000e-02
30 P22:126 P26:150 2.172000000e-02
31 P22:126 P27:156 2.172000000e-02
32 P22:126 P28:162 1.737600000e-01
33 P22:126 P9:48 8.080000000e-03
34 P22:128 P23:134 1.008305000e-02
35 P22:128 P23:137 9.450000000e-07
36 P22:128 P24:140 9.083050000e-03
37 P22:128 P24:143 9.450000000e-07
38 P22:128 P25:146 8.083050000e-03
39 P22:128 P25:149 9.450000000e-07
40 P22:128 P26:152 7.083050000e-03
41 P22:128 P26:155 9.450000000e-07
42 P22:128 P27:158 6.083050000e-03
43 P22:128 P27:161 9.450000000e-07
44 P22:128 P28:164 5.083050000e-03
45 P22:128 P28:167 9.450000000e-07
46 P22:128 P29:170 4.083050000e-03
47 P22:128 P29:173 9.450000000e-07
48 P22:128 P30:176 3.083050000e-03
49 P22:128 P30:179 9.450000000e-07
*RES
1 P22:126 P22:128 3.078625000e+01
2 P22:128 P22:127 3.078625000e+01
3 P22:129 P22:131 1.203650000e+00
4 P22:131 P22:130 1.203650000e+00
5 P22:126 P22:129 1.000000000e+00
6 P22 P22:126 0.000000000e+00
*END

*D_NET P23 1.587581575e-01
*CONN
*P P23 B
*CAP
1 P23:134 2.356256430e-02
2 P23:137 2.533683250e-03
3 P12:68 P23:134 8.305000000e-05
4 P12:68 P23:137 9.450000000e-07
5 P13:74 P23:134 1.083050000e-03
6 P13:74 P23:137 9.450000000e-07
7 P14:80 P23:134 2.083050000e-03
8 P14:80 P23:137 9.450000000e-07
9 P15:86 P23:134 3.083050000e-03
10 P15:86 P23:137 9.450000000e-07
11 P16:92 P23:134 4.083050000e-03
12 P16:92 P23:137 9.450000000e-07
13 P17:98 P23:134 5.083050000e-03
14 P17:98 P23:137 9.450000000e-07
15 P18:104 P23:134 6.083050000e-03
16 P18:104 P23:137 9.450000000e-07
17 P19:110 P23:134 7.083050000e-03
18 P19:110 P23:137 9.450000000e-07
19 P20:116 P23:134 8.083050000e-03
20 P20:116 P23:137 9.450000000e-07
21 P21:122 P23:134 9.083050000e-03
22 P21:122 P23:137 9.450000000e-07
23 P22:126 P23:132 2.172000000e-02
24 P22:128 P23:134 1.008305000e-02
25 P22:128 P23:137 9.450000000e-07
26 P23:132 P2:10 5.430000000e-03
27 P23:134 P24:140 1.008305000e-02
28 P23:134 P24:143 9.450000000e-07
29 P23:134 P25:146 9.083050000e-03
30 P23:134 P25:149 9.450000000e-07
31 P23:134 P26:152 8.083050000e-03
32 P23:134 P26:155 9.450000000e-07
33 P23:134 P27:158 7.083050000e-03
34 P23:134 P27:161 9.450000000e-07
35 P23:134 P28:164 6.083050000e-03
36 P23:134 P28:167 9.450000000e-07
37 P23:134 P29:170 5.083050000e-03
38 P23:134 P29:173 9.450000000e-07
39 P23:134 P30:176 4.083050000e-03
40 P23:134 P30:179 9.450000000e-07
*RES
1 P23:132 P23:134 3.078625000e+01
2 P23:134 P23:133 3.078625000e+01
3 P23:135 P23:137 1.203650000e+00
4 P23:137 P23:136 1.203650000e+00
5 P23:132 P23:135 1.000000000e+00
6 P23 P23:135 0.000000000e+00
*END

*D_NET P24 1.546741625e-01
*CONN
*P P24 B
*CAP
1 P24:140 2.356256430e-02
2 P24:143 2.533683250e-03
3 P13:74 P24:140 8.305000000e-05
4 P13:74 P24:143 9.450000000e-07
5 P14:80 P24:140 1.083050000e-03
6 P14:80 P24:143 9.450000000e-07
7 P15:86 P24:140 2.083050000e-03
8 P15:86 P24:143 9.450000000e-07
9 P16:92 P24:140 3.083050000e-03
10 P16:92 P24:143 9.450000000e-07
11 P17:98 P24:140 4.083050000e-03
12 P17:98 P24:143 9.450000000e-07
13 P18:104 P24:140 5.083050000e-03
14 P18:104 P24:143 9.450000000e-07
15 P19:110 P24:140 6.083050000e-03
16 P19:110 P24:143 9.450000000e-07
17 P20:116 P24:140 7.083050000e-03
18 P20:116 P24:143 9.450000000e-07
19 P21:122 P24:140 8.083050000e-03
20 P21:122 P24:143 9.450000000e-07
21 P22:126 P24:138 2.172000000e-02
22 P22:128 P24:140 9.083050000e-03
23 P22:128 P24:143 9.450000000e-07
24 P23:134 P24:140 1.008305000e-02
25 P23:134 P24:143 9.450000000e-07
26 P24:138 P3:12 5.430000000e-03
27 P24:140 P25:146 1.008305000e-02
28 P24:140 P25:149 9.450000000e-07
29 P24:140 P26:152 9.083050000e-03
30 P24:140 P26:155 9.450000000e-07
31 P24:140 P27:158 8.083050000e-03
32 P24:140 P27:161 9.450000000e-07
33 P24:140 P28:164 7.083050000e-03
34 P24:140 P28:167 9.450000000e-07
35 P24:140 P29:170 6.083050000e-03
36 P24:140 P29:173 9.450000000e-07
37 P24:140 P30:176 5.083050000e-03
38 P24:140 P30:179 9.450000000e-07
*RES
1 P24:138 P24:140 3.078625000e+01
2 P24:140 P24:139 3.078625000e+01
3 P24:141 P24:143 1.203650000e+00
4 P24:143 P24:142 1.203650000e+00
5 P24:138 P24:141 1.000000000e+00
6 P24 P24:141 0.000000000e+00
*END

*D_NET P25 1.495901675e-01
*CONN
*P P25 B
*CAP
1 P25:146 2.356256430e-02
2 P25:149 2.533683250e-03
3 P14:80 P25:146 8.305000000e-05
4 P14:80 P25:149 9.450000000e-07
5 P15:86 P25:146 1.083050000e-03
6 P15:86 P25:149 9.450000000e-07
7 P16:92 P25:146 2.083050000e-03
8 P16:92 P25:149 9.450000000e-07
9 P17:98 P25:146 3.083050000e-03
10 P17:98 P25:149 9.450000000e-07
11 P18:104 P25:146 4.083050000e-03
12 P18:104 P25:149 9.450000000e-07
13 P19:110 P25:146 5.083050000e-03
14 P19:110 P25:149 9.450000000e-07
15 P20:116 P25:146 6.083050000e-03
16 P20:116 P25:149 9.450000000e-07
17 P21:122 P25:146 7.083050000e-03
18 P21:122 P25:149 9.450000000e-07
19 P22:126 P25:144 2.172000000e-02
20 P22:128 P25:146 8.083050000e-03
21 P22:128 P25:149 9.450000000e-07
22 P23:134 P25:146 9.083050000e-03
23 P23:134 P25:149 9.450000000e-07
24 P24:140 P25:146 1.008305000e-02
25 P24:140 P25:149 9.450000000e-07
26 P25:144 P4:18 5.430000000e-03
27 P25:146 P26:152 1.008305000e-02
28 P25:146 P26:155 9.450000000e-07
29 P25:146 P27:158 9.083050000e-03
30 P25:146 P27:161 9.450000000e-07
31 P25:146 P28:164 8.083050000e-03
32 P25:146 P28:167 9.450000000e-07
33 P25:146 P29:170 7.083050000e-03
34 P25:146 P29:173 9.450000000e-07
35 P25:146 P30:176 6.083050000e-03
36 P25:146 P30:179 9.450000000e-07
*RES
1 P25:144 P25:146 3.078625000e+01
2 P25:146 P25:145 3.078625000e+01
3 P25:147 P25:149 1.203650000e+00
4 P25:149 P25:148 1.203650000e+00
5 P25:144 P25:147 1.000000000e+00
6 P25 P25:147 0.000000000e+00
*END

*D_NET P26 1.435061725e-01
*CONN
*P P26 B
*CAP
1 P26:152 2.356256430e-02
2 P26:155 2.533683250e-03
3 P15:86 P26:152 8.305000000e-05
4 P15:86 P26:155 9.450000000e-07
5 P16:92 P26:152 1.083050000e-03
6 P16:92 P26:155 9.450000000e-07
7 P17:98 P26:152 2.083050000e-03
8 P17:98 P26:155 9.450000000e-07
9 P18:104 P26:152 3.083050000e-03
10 P18:104 P26:155 9.450000000e-07
11 P19:110 P26:152 4.083050000e-03
12 P19:110 P26:155 9.450000000e-07
13 P20:116 P26:152 5.083050000e-03
14 P20:116 P26:155 9.450000000e-07
15 P21:122 P26:152 6.083050000e-03
16 P21:122 P26:155 9.450000000e-07
17 P22:126 P26:150 2.172000000e-02
18 P22:128 P26:152 7.083050000e-03
19 P22:128 P26:155 9.450000000e-07
20 P23:134 P26:152 8.083050000e-03
21 P23:134 P26:155 9.450000000e-07
22 P24:140 P26:152 9.083050000e-03
23 P24:140 P26:155 9.450000000e-07
24 P25:146 P26:152 1.008305000e-02
25 P25:146 P26:155 9.450000000e-07
26 P26:150 P6:30 5.430000000e-03
27 P26:152 P27:158 1.008305000e-02
28 P26:152 P27:161 9.450000000e-07
29 P26:152 P28:164 9.083050000e-03
30 P26:152 P28:167 9.450000000e-07
31 P26:152 P29:170 8.083050000e-03
32 P26:152 P29:173 9.450000000e-07
33 P26:152 P30:176 7.083050000e-03
34 P26:152 P30:179 9.450000000e-07
*RES
1 P26:150 P26:152 3.078625000e+01
2 P26:152 P26:151 3.078625000e+01
3 P26:153 P26:155 1.203650000e+00
4 P26:155 P26:154 1.203650000e+00
5 P26:150 P26:153 1.000000000e+00
6 P26 P26:150 0.000000000e+00
*END

*D_NET P27 1.364221775e-01
*CONN
*P P27 B
*CAP
1 P27:158 2.356256430e-02
2 P27:161 2.533683250e-03
3 P16:92 P27:158 8.305000000e-05
4 P16:92 P27:161 9.450000000e-07
5 P17:98 P27:158 1.083050000e-03
6 P17:98 P27:161 9.450000000e-07
7 P18:104 P27:158 2.083050000e-03
8 P18:104 P27:161 9.450000000e-07
9 P19:110 P27:158 3.083050000e-03
10 P19:110 P27:161 9.450000000e-07
11 P20:116 P27:158 4.083050000e-03
12 P20:116 P27:161 9.450000000e-07
13 P21:122 P27:158 5.083050000e-03
14 P21:122 P27:161 9.450000000e-07
15 P22:126 P27:156 2.172000000e-02
16 P22:128 P27:158 6.083050000e-03
17 P22:128 P27:161 9.450000000e-07
18 P23:134 P27:158 7.083050000e-03
19 P23:134 P27:161 9.450000000e-07
20 P24:140 P27:158 8.083050000e-03
21 P24:140 P27:161 9.450000000e-07
22 P25:146 P27:158 9.083050000e-03
23 P25:146 P27:161 9.450000000e-07
24 P26:152 P27:158 1.008305000e-02
25 P26:152 P27:161 9.450000000e-07
26 P27:156 P7:36 5.430000000e-03
27 P27:158 P28:164 1.008305000e-02
28 P27:158 P28:167 9.450000000e-07
29 P27:158 P29:170 9.083050000e-03
30 P27:158 P29:173 9.450000000e-07
31 P27:158 P30:176 8.083050000e-03
32 P27:158 P30:179 9.450000000e-07
*RES
1 P27:156 P27:158 3.078625000e+01
2 P27:158 P27:157 3.078625000e+01
3 P27:159 P27:161 1.203650000e+00
4 P27:161 P27:160 1.203650000e+00
5 P27:156 P27:159 1.000000000e+00
6 P27 P27:159 0.000000000e+00
*END

*D_NET P28 2.858081825e-01
*CONN
*P P28 B
*CAP
1 P28:164 2.356256430e-02
2 P28:167 2.533683250e-03
3 P17:98 P28:164 8.305000000e-05
4 P17:98 P28:167 9.450000000e-07
5 P18:102 P28:162 5.430000000e-03
6 P18:104 P28:164 1.083050000e-03
7 P18:104 P28:167 9.450000000e-07
8 P19:110 P28:164 2.083050000e-03
9 P19:110 P28:167 9.450000000e-07
10 P20:116 P28:164 3.083050000e-03
11 P20:116 P28:167 9.450000000e-07
12 P21:122 P28:164 4.083050000e-03
13 P21:122 P28:167 9.450000000e-07
14 P22:126 P28:162 1.737600000e-01
15 P22:128 P28:164 5.083050000e-03
16 P22:128 P28:167 9.450000000e-07
17 P23:134 P28:164 6.083050000e-03
18 P23:134 P28:167 9.450000000e-07
19 P24:140 P28:164 7.083050000e-03
20 P24:140 P28:167 9.450000000e-07
21 P25:146 P28:164 8.083050000e-03
22 P25:146 P28:167 9.450000000e-07
23 P26:152 P28:164 9.083050000e-03
24 P26:152 P28:167 9.450000000e-07
25 P27:158 P28:164 1.008305000e-02
26 P27:158 P28:167 9.450000000e-07
27 P28:162 P8:42 5.430000000e-03
28 P28:164 P29:170 1.008305000e-02
29 P28:164 P29:173 9.450000000e-07
30 P28:164 P30:176 9.083050000e-03
31 P28:164 P30:179 9.450000000e-07
*RES
1 P28:162 P28:164 3.078625000e+01
2 P28:164 P28:163 3.078625000e+01
3 P28:165 P28:167 1.203650000e+00
4 P28:167 P28:166 1.203650000e+00
5 P28:162 P28:165 1.000000000e+00
6 P28 P28:165 0.000000000e+00
*END

*D_NET P29 9.210418755e-02
*CONN
*P P29 B
*CAP
1 P29:170 2.356256430e-02
2 P29:173 2.533683250e-03
3 P18:104 P29:170 8.305000000e-05
4 P18:104 P29:173 9.450000000e-07
5 P19:110 P29:170 1.083050000e-03
6 P19:110 P29:173 9.450000000e-07
7 P20:116 P29:170 2.083050000e-03
8 P20:116 P29:173 9.450000000e-07
9 P21:122 P29:170 3.083050000e-03
10 P21:122 P29:173 9.450000000e-07
11 P22:128 P29:170 4.083050000e-03
12 P22:128 P29:173 9.450000000e-07
13 P23:134 P29:170 5.083050000e-03
14 P23:134 P29:173 9.450000000e-07
15 P24:140 P29:170 6.083050000e-03
16 P24:140 P29:173 9.450000000e-07
17 P25:146 P29:170 7.083050000e-03
18 P25:146 P29:173 9.450000000e-07
19 P26:152 P29:170 8.083050000e-03
20 P26:152 P29:173 9.450000000e-07
21 P27:158 P29:170 9.083050000e-03
22 P27:158 P29:173 9.450000000e-07
23 P28:164 P29:170 1.008305000e-02
24 P28:164 P29:173 9.450000000e-07
25 P29:170 P30:176 1.008305000e-02
26 P29:170 P30:179 9.450000000e-07
*RES
1 P29:168 P29:170 3.078625000e+01
2 P29:170 P29:169 3.078625000e+01
3 P29:171 P29:173 1.203650000e+00
4 P29:173 P29:172 1.203650000e+00
5 P29:168 P29:171 1.000000000e+00
6 P29 P29:171 0.000000000e+00
*END

*D_NET P3 1.295981825e-01
*CONN
*P P3 B
*CAP
1 P3:14 2.356256430e-02
2 P3:17 2.533683250e-03
3 P10:56 P3:14 4.083050000e-03
4 P10:59 P3:14 9.450000000e-07
5 P11:62 P3:14 3.083050000e-03
6 P11:65 P3:14 9.450000000e-07
7 P12:66 P3:12 4.040000000e-03
8 P12:68 P3:14 2.083050000e-03
9 P12:71 P3:14 9.450000000e-07
10 P13:74 P3:14 1.083050000e-03
11 P13:77 P3:14 9.450000000e-07
12 P14:80 P3:14 8.305000000e-05
13 P14:83 P3:14 9.450000000e-07
14 P1:2 P3:14 9.083050000e-03
15 P1:2 P3:17 9.450000000e-07
16 P24:138 P3:12 5.430000000e-03
17 P2:10 P3:12 9.470000000e-03
18 P2:8 P3:14 1.008305000e-02
19 P2:8 P3:17 9.450000000e-07
20 P3:12 P4:18 9.470000000e-03
21 P3:14 P4:20 1.008305000e-02
22 P3:14 P4:23 9.450000000e-07
23 P3:14 P5:26 9.083050000e-03
24 P3:14 P5:29 9.450000000e-07
25 P3:14 P6:32 8.083050000e-03
26 P3:14 P6:35 9.450000000e-07
27 P3:14 P7:38 7.083050000e-03
28 P3:14 P7:41 9.450000000e-07
29 P3:14 P8:44 6.083050000e-03
30 P3:14 P8:47 9.450000000e-07
31 P3:14 P9:50 5.083050000e-03
32 P3:14 P9:53 9.450000000e-07
*RES
1 P3:12 P3:14 3.078625000e+01
2 P3:14 P3:13 3.078625000e+01
3 P3:15 P3:17 1.203650000e+00
4 P3:17 P3:16 1.203650000e+00
5 P3:12 P3:15 1.000000000e+00
6 P3 P3:15 0.000000000e+00
*END

*D_NET P30 8.202019255e-02
*CONN
*P P30 B
*CAP
1 P30:176 2.356256430e-02
2 P30:179 2.533683250e-03
3 P19:110 P30:176 8.305000000e-05
4 P19:110 P30:179 9.450000000e-07
5 P20:116 P30:176 1.083050000e-03
6 P20:116 P30:179 9.450000000e-07
7 P21:122 P30:176 2.083050000e-03
8 P21:122 P30:179 9.450000000e-07
9 P22:128 P30:176 3.083050000e-03
10 P22:128 P30:179 9.450000000e-07
11 P23:134 P30:176 4.083050000e-03
12 P23:134 P30:179 9.450000000e-07
13 P24:140 P30:176 5.083050000e-03
14 P24:140 P30:179 9.450000000e-07
15 P25:146 P30:176 6.083050000e-03
16 P25:146 P30:179 9.450000000e-07
17 P26:152 P30:176 7.083050000e-03
18 P26:152 P30:179 9.450000000e-07
19 P27:158 P30:176 8.083050000e-03
20 P27:158 P30:179 9.450000000e-07
21 P28:164 P30:176 9.083050000e-03
22 P28:164 P30:179 9.450000000e-07
23 P29:170 P30:176 1.008305000e-02
24 P29:170 P30:179 9.450000000e-07
*RES
1 P30:174 P30:176 3.078625000e+01
2 P30:176 P30:175 3.078625000e+01
3 P30:177 P30:179 1.203650000e+00
4 P30:179 P30:178 1.203650000e+00
5 P30:174 P30:177 1.000000000e+00
6 P30 P30:174 0.000000000e+00
*END

*D_NET P4 1.376821776e-01
*CONN
*P P4 B
*CAP
1 P4:20 2.356256430e-02
2 P4:23 2.533683250e-03
3 P10:56 P4:20 5.083050000e-03
4 P10:59 P4:20 9.450000000e-07
5 P11:62 P4:20 4.083050000e-03
6 P11:65 P4:20 9.450000000e-07
7 P12:68 P4:20 3.083050000e-03
8 P12:71 P4:20 9.450000000e-07
9 P13:72 P4:18 4.040000000e-03
10 P13:74 P4:20 2.083050000e-03
11 P13:77 P4:20 9.450000000e-07
12 P14:80 P4:20 1.083050000e-03
13 P14:83 P4:20 9.450000000e-07
14 P15:86 P4:20 8.305000000e-05
15 P15:89 P4:20 9.450000000e-07
16 P1:2 P4:20 8.083050000e-03
17 P1:2 P4:23 9.450000000e-07
18 P25:144 P4:18 5.430000000e-03
19 P2:8 P4:20 9.083050000e-03
20 P2:8 P4:23 9.450000000e-07
21 P3:12 P4:18 9.470000000e-03
22 P3:14 P4:20 1.008305000e-02
23 P3:14 P4:23 9.450000000e-07
24 P4:18 P5:24 9.470000000e-03
25 P4:20 P5:26 1.008305000e-02
26 P4:20 P5:29 9.450000000e-07
27 P4:20 P6:32 9.083050000e-03
28 P4:20 P6:35 9.450000000e-07
29 P4:20 P7:38 8.083050000e-03
30 P4:20 P7:41 9.450000000e-07
31 P4:20 P8:44 7.083050000e-03
32 P4:20 P8:47 9.450000000e-07
33 P4:20 P9:50 6.083050000e-03
34 P4:20 P9:53 9.450000000e-07
*RES
1 P4:18 P4:20 3.078625000e+01
2 P4:20 P4:19 3.078625000e+01
3 P4:21 P4:23 1.203650000e+00
4 P4:23 P4:22 1.203650000e+00
5 P4:18 P4:21 1.000000000e+00
6 P4 P4:18 0.000000000e+00
*END

*D_NET P5 1.447661726e-01
*CONN
*P P5 B
*CAP
1 P5:26 2.356256430e-02
2 P5:29 2.533683250e-03
3 P10:56 P5:26 6.083050000e-03
4 P10:59 P5:26 9.450000000e-07
5 P11:62 P5:26 5.083050000e-03
6 P11:65 P5:26 9.450000000e-07
7 P12:68 P5:26 4.083050000e-03
8 P12:71 P5:26 9.450000000e-07
9 P13:74 P5:26 3.083050000e-03
10 P13:77 P5:26 9.450000000e-07
11 P14:78 P5:24 4.040000000e-03
12 P14:80 P5:26 2.083050000e-03
13 P14:83 P5:26 9.450000000e-07
14 P15:86 P5:26 1.083050000e-03
15 P15:89 P5:26 9.450000000e-07
16 P16:92 P5:26 8.305000000e-05
17 P16:95 P5:26 9.450000000e-07
18 P1:2 P5:26 7.083050000e-03
19 P1:2 P5:29 9.450000000e-07
20 P21:120 P5:24 5.430000000e-03
21 P2:8 P5:26 8.083050000e-03
22 P2:8 P5:29 9.450000000e-07
23 P3:14 P5:26 9.083050000e-03
24 P3:14 P5:29 9.450000000e-07
25 P4:18 P5:24 9.470000000e-03
26 P4:20 P5:26 1.008305000e-02
27 P4:20 P5:29 9.450000000e-07
28 P5:24 P6:30 9.470000000e-03
29 P5:26 P6:32 1.008305000e-02
30 P5:26 P6:35 9.450000000e-07
31 P5:26 P7:38 9.083050000e-03
32 P5:26 P7:41 9.450000000e-07
33 P5:26 P8:44 8.083050000e-03
34 P5:26 P8:47 9.450000000e-07
35 P5:26 P9:50 7.083050000e-03
36 P5:26 P9:53 9.450000000e-07
*RES
1 P5:24 P5:26 3.078625000e+01
2 P5:26 P5:25 3.078625000e+01
3 P5:27 P5:29 1.203650000e+00
4 P5:29 P5:28 1.203650000e+00
5 P5:24 P5:27 1.000000000e+00
6 P5 P5:27 0.000000000e+00
*END

*D_NET P6 1.508501675e-01
*CONN
*P P6 B
*CAP
1 P6:32 2.356256430e-02
2 P6:35 2.533683250e-03
3 P10:56 P6:32 7.083050000e-03
4 P10:59 P6:32 9.450000000e-07
5 P11:62 P6:32 6.083050000e-03
6 P11:65 P6:32 9.450000000e-07
7 P12:68 P6:32 5.083050000e-03
8 P12:71 P6:32 9.450000000e-07
9 P13:74 P6:32 4.083050000e-03
10 P13:77 P6:32 9.450000000e-07
11 P14:80 P6:32 3.083050000e-03
12 P14:83 P6:32 9.450000000e-07
13 P15:84 P6:30 4.040000000e-03
14 P15:86 P6:32 2.083050000e-03
15 P15:89 P6:32 9.450000000e-07
16 P16:92 P6:32 1.083050000e-03
17 P16:95 P6:32 9.450000000e-07
18 P17:101 P6:32 9.450000000e-07
19 P17:98 P6:32 8.305000000e-05
20 P1:2 P6:32 6.083050000e-03
21 P1:2 P6:35 9.450000000e-07
22 P26:150 P6:30 5.430000000e-03
23 P2:8 P6:32 7.083050000e-03
24 P2:8 P6:35 9.450000000e-07
25 P3:14 P6:32 8.083050000e-03
26 P3:14 P6:35 9.450000000e-07
27 P4:20 P6:32 9.083050000e-03
28 P4:20 P6:35 9.450000000e-07
29 P5:24 P6:30 9.470000000e-03
30 P5:26 P6:32 1.008305000e-02
31 P5:26 P6:35 9.450000000e-07
32 P6:30 P7:36 9.470000000e-03
33 P6:32 P7:38 1.008305000e-02
34 P6:32 P7:41 9.450000000e-07
35 P6:32 P8:44 9.083050000e-03
36 P6:32 P8:47 9.450000000e-07
37 P6:32 P9:50 8.083050000e-03
38 P6:32 P9:53 9.450000000e-07
*RES
1 P6:30 P6:32 3.078625000e+01
2 P6:32 P6:31 3.078625000e+01
3 P6:33 P6:35 1.203650000e+00
4 P6:35 P6:34 1.203650000e+00
5 P6:30 P6:33 1.000000000e+00
6 P6 P6:33 0.000000000e+00
*END

*D_NET P7 1.559341626e-01
*CONN
*P P7 B
*CAP
1 P7:38 2.356256430e-02
2 P7:41 2.533683250e-03
3 P10:56 P7:38 8.083050000e-03
4 P10:59 P7:38 9.450000000e-07
5 P11:62 P7:38 7.083050000e-03
6 P11:65 P7:38 9.450000000e-07
7 P12:68 P7:38 6.083050000e-03
8 P12:71 P7:38 9.450000000e-07
9 P13:74 P7:38 5.083050000e-03
10 P13:77 P7:38 9.450000000e-07
11 P14:80 P7:38 4.083050000e-03
12 P14:83 P7:38 9.450000000e-07
13 P15:86 P7:38 3.083050000e-03
14 P15:89 P7:38 9.450000000e-07
15 P16:90 P7:36 4.040000000e-03
16 P16:92 P7:38 2.083050000e-03
17 P16:95 P7:38 9.450000000e-07
18 P17:101 P7:38 9.450000000e-07
19 P17:98 P7:38 1.083050000e-03
20 P18:104 P7:38 8.305000000e-05
21 P18:107 P7:38 9.450000000e-07
22 P1:2 P7:38 5.083050000e-03
23 P1:2 P7:41 9.450000000e-07
24 P27:156 P7:36 5.430000000e-03
25 P2:8 P7:38 6.083050000e-03
26 P2:8 P7:41 9.450000000e-07
27 P3:14 P7:38 7.083050000e-03
28 P3:14 P7:41 9.450000000e-07
29 P4:20 P7:38 8.083050000e-03
30 P4:20 P7:41 9.450000000e-07
31 P5:26 P7:38 9.083050000e-03
32 P5:26 P7:41 9.450000000e-07
33 P6:30 P7:36 9.470000000e-03
34 P6:32 P7:38 1.008305000e-02
35 P6:32 P7:41 9.450000000e-07
36 P7:36 P8:42 9.470000000e-03
37 P7:38 P8:44 1.008305000e-02
38 P7:38 P8:47 9.450000000e-07
39 P7:38 P9:50 9.083050000e-03
40 P7:38 P9:53 9.450000000e-07
*RES
1 P7:36 P7:38 3.078625000e+01
2 P7:38 P7:37 3.078625000e+01
3 P7:39 P7:41 1.203650000e+00
4 P7:41 P7:40 1.203650000e+00
5 P7:36 P7:39 1.000000000e+00
6 P7 P7:39 0.000000000e+00
*END

*D_NET P8 1.789581576e-01
*CONN
*P P8 B
*CAP
1 P8:44 2.356256430e-02
2 P8:47 2.533683250e-03
3 P10:54 P8:42 4.040000000e-03
4 P10:56 P8:44 9.083050000e-03
5 P10:59 P8:44 9.450000000e-07
6 P11:62 P8:44 8.083050000e-03
7 P11:65 P8:44 9.450000000e-07
8 P12:68 P8:44 7.083050000e-03
9 P12:71 P8:44 9.450000000e-07
10 P13:74 P8:44 6.083050000e-03
11 P13:77 P8:44 9.450000000e-07
12 P14:80 P8:44 5.083050000e-03
13 P14:83 P8:44 9.450000000e-07
14 P15:86 P8:44 4.083050000e-03
15 P15:89 P8:44 9.450000000e-07
16 P16:92 P8:44 3.083050000e-03
17 P16:95 P8:44 9.450000000e-07
18 P17:101 P8:44 9.450000000e-07
19 P17:98 P8:44 2.083050000e-03
20 P18:102 P8:42 9.470000000e-03
21 P18:104 P8:44 1.083050000e-03
22 P18:107 P8:44 9.450000000e-07
23 P19:110 P8:44 8.305000000e-05
24 P19:113 P8:44 9.450000000e-07
25 P1:0 P8:42 4.040000000e-03
26 P1:2 P8:44 4.083050000e-03
27 P1:2 P8:47 9.450000000e-07
28 P20:114 P8:42 5.430000000e-03
29 P28:162 P8:42 5.430000000e-03
30 P2:10 P8:42 9.470000000e-03
31 P2:8 P8:44 5.083050000e-03
32 P2:8 P8:47 9.450000000e-07
33 P3:14 P8:44 6.083050000e-03
34 P3:14 P8:47 9.450000000e-07
35 P4:20 P8:44 7.083050000e-03
36 P4:20 P8:47 9.450000000e-07
37 P5:26 P8:44 8.083050000e-03
38 P5:26 P8:47 9.450000000e-07
39 P6:32 P8:44 9.083050000e-03
40 P6:32 P8:47 9.450000000e-07
41 P7:36 P8:42 9.470000000e-03
42 P7:38 P8:44 1.008305000e-02
43 P7:38 P8:47 9.450000000e-07
44 P8:44 P9:50 1.008305000e-02
45 P8:44 P9:53 9.450000000e-07
*RES
1 P8:42 P8:44 3.078625000e+01
2 P8:44 P8:43 3.078625000e+01
3 P8:45 P8:47 1.203650000e+00
4 P8:47 P8:46 1.203650000e+00
5 P8:42 P8:45 1.000000000e+00
6 P8 P8:42 0.000000000e+00
*END

*D_NET P9 1.508521526e-01
*CONN
*P P9 B
*CAP
1 P9:50 2.356256430e-02
2 P9:53 2.533683250e-03
3 P10:56 P9:50 1.008305000e-02
4 P10:59 P9:50 9.450000000e-07
5 P11:62 P9:50 9.083050000e-03
6 P11:65 P9:50 9.450000000e-07
7 P12:68 P9:50 8.083050000e-03
8 P12:71 P9:50 9.450000000e-07
9 P13:74 P9:50 7.083050000e-03
10 P13:77 P9:50 9.450000000e-07
11 P14:80 P9:50 6.083050000e-03
12 P14:83 P9:50 9.450000000e-07
13 P15:86 P9:50 5.083050000e-03
14 P15:89 P9:50 9.450000000e-07
15 P16:92 P9:50 4.083050000e-03
16 P16:95 P9:50 9.450000000e-07
17 P17:100 P9:48 8.080000000e-03
18 P17:101 P9:50 9.450000000e-07
19 P17:98 P9:50 3.083050000e-03
20 P18:104 P9:50 2.083050000e-03
21 P18:107 P9:50 9.450000000e-07
22 P19:110 P9:50 1.083050000e-03
23 P19:113 P9:50 9.450000000e-07
24 P1:2 P9:50 3.083050000e-03
25 P1:2 P9:53 9.450000000e-07
26 P20:116 P9:50 8.305000000e-05
27 P20:119 P9:50 9.450000000e-07
28 P22:126 P9:48 8.080000000e-03
29 P2:8 P9:50 4.083050000e-03
30 P2:8 P9:53 9.450000000e-07
31 P3:14 P9:50 5.083050000e-03
32 P3:14 P9:53 9.450000000e-07
33 P4:20 P9:50 6.083050000e-03
34 P4:20 P9:53 9.450000000e-07
35 P5:26 P9:50 7.083050000e-03
36 P5:26 P9:53 9.450000000e-07
37 P6:32 P9:50 8.083050000e-03
38 P6:32 P9:53 9.450000000e-07
39 P7:38 P9:50 9.083050000e-03
40 P7:38 P9:53 9.450000000e-07
41 P8:44 P9:50 1.008305000e-02
42 P8:44 P9:53 9.450000000e-07
*RES
1 P9:48 P9:50 3.078625000e+01
2 P9:50 P9:49 3.078625000e+01
3 P9:51 P9:53 1.203650000e+00
4 P9:53 P9:52 1.203650000e+00
5 P9:48 P9:51 1.000000000e+00
6 P9 P9:48 0.000000000e+00
*END

