*SPEF "IEEE 1481-1998"
*DESIGN "VCO"
*DATE "2026-01-01T00:00:00"
*VENDOR "TR-1um flow"
*PROGRAM "extract_tr1um_parasitics"
*VERSION "3.0"
*DESIGN_FLOW "PIN_CAP NONE" "NAME_SCOPE LOCAL"
*DIVIDER /
*DELIMITER :
*BUS_DELIMITER [ ]
*T_UNIT 1 NS
*C_UNIT 1 PF
*R_UNIT 1 OHM
*L_UNIT 1 HENRY

*D_NET P1 1.553866426e-01
*CONN
*P P1 B
*CAP
1 P1:2 2.356256430e-02
2 P1:5 2.533683250e-03
3 P10:59 P1:2 9.450000000e-07
4 P11:65 P1:2 9.450000000e-07
5 P12:71 P1:2 9.450000000e-07
6 P17:100 P1:0 1.212000000e-01
7 P18:102 P1:0 4.040000000e-03
8 P1:0 P8:42 4.040000000e-03
9 P1:2 P2:11 9.450000000e-07
10 P1:2 P3:17 9.450000000e-07
11 P1:2 P4:23 9.450000000e-07
12 P1:2 P5:29 9.450000000e-07
13 P1:2 P6:35 9.450000000e-07
14 P1:2 P7:41 9.450000000e-07
15 P1:2 P8:47 9.450000000e-07
16 P1:2 P9:53 9.450000000e-07
*RES
1 P1:0 P1:2 3.078625000e+01
2 P1:2 P1:1 3.078625000e+01
3 P1:3 P1:5 1.203650000e+00
4 P1:5 P1:4 1.203650000e+00
5 P1:0 P1:3 1.000000000e+00
6 P1 P1:3 1.000000000e-06
*END

*D_NET P10 4.631514755e-02
*CONN
*P P10 B
*CAP
1 P10:56 2.356256430e-02
2 P10:59 2.533683250e-03
3 P10:54 P17:100 1.616000000e-02
4 P10:54 P8:42 4.040000000e-03
5 P10:56 P11:65 9.450000000e-07
6 P10:56 P12:71 9.450000000e-07
7 P10:56 P13:77 9.450000000e-07
8 P10:56 P14:83 9.450000000e-07
9 P10:56 P15:89 9.450000000e-07
10 P10:56 P16:95 9.450000000e-07
11 P10:56 P17:101 9.450000000e-07
12 P10:56 P18:107 9.450000000e-07
13 P10:56 P19:113 9.450000000e-07
14 P10:56 P20:119 9.450000000e-07
15 P10:56 P21:125 9.450000000e-07
16 P10:59 P1:2 9.450000000e-07
17 P10:59 P2:8 9.450000000e-07
18 P10:59 P3:14 9.450000000e-07
19 P10:59 P4:20 9.450000000e-07
20 P10:59 P5:26 9.450000000e-07
21 P10:59 P6:32 9.450000000e-07
22 P10:59 P7:38 9.450000000e-07
23 P10:59 P8:44 9.450000000e-07
24 P10:59 P9:50 9.450000000e-07
*RES
1 P10:54 P10:56 3.078625000e+01
2 P10:56 P10:55 3.078625000e+01
3 P10:57 P10:59 1.203650000e+00
4 P10:59 P10:58 1.203650000e+00
5 P10:54 P10:57 1.000000000e+00
6 P10 P10:54 1.000000000e-06
*END

*D_NET P11 4.631609255e-02
*CONN
*P P11 B
*CAP
1 P11:62 2.356256430e-02
2 P11:65 2.533683250e-03
3 P10:56 P11:65 9.450000000e-07
4 P11:60 P17:100 1.616000000e-02
5 P11:60 P2:10 4.040000000e-03
6 P11:62 P12:71 9.450000000e-07
7 P11:62 P13:77 9.450000000e-07
8 P11:62 P14:83 9.450000000e-07
9 P11:62 P15:89 9.450000000e-07
10 P11:62 P16:95 9.450000000e-07
11 P11:62 P17:101 9.450000000e-07
12 P11:62 P18:107 9.450000000e-07
13 P11:62 P19:113 9.450000000e-07
14 P11:62 P20:119 9.450000000e-07
15 P11:62 P21:125 9.450000000e-07
16 P11:62 P22:131 9.450000000e-07
17 P11:65 P1:2 9.450000000e-07
18 P11:65 P2:8 9.450000000e-07
19 P11:65 P3:14 9.450000000e-07
20 P11:65 P4:20 9.450000000e-07
21 P11:65 P5:26 9.450000000e-07
22 P11:65 P6:32 9.450000000e-07
23 P11:65 P7:38 9.450000000e-07
24 P11:65 P8:44 9.450000000e-07
25 P11:65 P9:50 9.450000000e-07
*RES
1 P11:60 P11:62 3.078625000e+01
2 P11:62 P11:61 3.078625000e+01
3 P11:63 P11:65 1.203650000e+00
4 P11:65 P11:64 1.203650000e+00
5 P11:60 P11:63 1.000000000e+00
6 P11 P11:63 1.000000000e-06
*END

*D_NET P12 4.631703755e-02
*CONN
*P P12 B
*CAP
1 P12:68 2.356256430e-02
2 P12:71 2.533683250e-03
3 P10:56 P12:71 9.450000000e-07
4 P11:62 P12:71 9.450000000e-07
5 P12:66 P17:100 1.616000000e-02
6 P12:66 P3:12 4.040000000e-03
7 P12:68 P13:77 9.450000000e-07
8 P12:68 P14:83 9.450000000e-07
9 P12:68 P15:89 9.450000000e-07
10 P12:68 P16:95 9.450000000e-07
11 P12:68 P17:101 9.450000000e-07
12 P12:68 P18:107 9.450000000e-07
13 P12:68 P19:113 9.450000000e-07
14 P12:68 P20:119 9.450000000e-07
15 P12:68 P21:125 9.450000000e-07
16 P12:68 P22:131 9.450000000e-07
17 P12:68 P23:137 9.450000000e-07
18 P12:71 P1:2 9.450000000e-07
19 P12:71 P2:8 9.450000000e-07
20 P12:71 P3:14 9.450000000e-07
21 P12:71 P4:20 9.450000000e-07
22 P12:71 P5:26 9.450000000e-07
23 P12:71 P6:32 9.450000000e-07
24 P12:71 P7:38 9.450000000e-07
25 P12:71 P8:44 9.450000000e-07
26 P12:71 P9:50 9.450000000e-07
*RES
1 P12:66 P12:68 3.078625000e+01
2 P12:68 P12:67 3.078625000e+01
3 P12:69 P12:71 1.203650000e+00
4 P12:71 P12:70 1.203650000e+00
5 P12:66 P12:69 1.000000000e+00
6 P12 P12:69 1.000000000e-06
*END

*D_NET P13 4.631703755e-02
*CONN
*P P13 B
*CAP
1 P13:74 2.356256430e-02
2 P13:77 2.533683250e-03
3 P10:56 P13:77 9.450000000e-07
4 P11:62 P13:77 9.450000000e-07
5 P12:68 P13:77 9.450000000e-07
6 P13:72 P17:100 1.616000000e-02
7 P13:72 P4:18 4.040000000e-03
8 P13:74 P14:83 9.450000000e-07
9 P13:74 P15:89 9.450000000e-07
10 P13:74 P16:95 9.450000000e-07
11 P13:74 P17:101 9.450000000e-07
12 P13:74 P18:107 9.450000000e-07
13 P13:74 P19:113 9.450000000e-07
14 P13:74 P20:119 9.450000000e-07
15 P13:74 P21:125 9.450000000e-07
16 P13:74 P22:131 9.450000000e-07
17 P13:74 P23:137 9.450000000e-07
18 P13:74 P24:143 9.450000000e-07
19 P13:77 P2:8 9.450000000e-07
20 P13:77 P3:14 9.450000000e-07
21 P13:77 P4:20 9.450000000e-07
22 P13:77 P5:26 9.450000000e-07
23 P13:77 P6:32 9.450000000e-07
24 P13:77 P7:38 9.450000000e-07
25 P13:77 P8:44 9.450000000e-07
26 P13:77 P9:50 9.450000000e-07
*RES
1 P13:72 P13:74 3.078625000e+01
2 P13:74 P13:73 3.078625000e+01
3 P13:75 P13:77 1.203650000e+00
4 P13:77 P13:76 1.203650000e+00
5 P13:72 P13:75 1.000000000e+00
6 P13 P13:75 1.000000000e-06
*END

*D_NET P14 4.631703755e-02
*CONN
*P P14 B
*CAP
1 P14:80 2.356256430e-02
2 P14:83 2.533683250e-03
3 P10:56 P14:83 9.450000000e-07
4 P11:62 P14:83 9.450000000e-07
5 P12:68 P14:83 9.450000000e-07
6 P13:74 P14:83 9.450000000e-07
7 P14:78 P17:100 1.616000000e-02
8 P14:78 P5:24 4.040000000e-03
9 P14:80 P15:89 9.450000000e-07
10 P14:80 P16:95 9.450000000e-07
11 P14:80 P17:101 9.450000000e-07
12 P14:80 P18:107 9.450000000e-07
13 P14:80 P19:113 9.450000000e-07
14 P14:80 P20:119 9.450000000e-07
15 P14:80 P21:125 9.450000000e-07
16 P14:80 P22:131 9.450000000e-07
17 P14:80 P23:137 9.450000000e-07
18 P14:80 P24:143 9.450000000e-07
19 P14:80 P25:149 9.450000000e-07
20 P14:83 P3:14 9.450000000e-07
21 P14:83 P4:20 9.450000000e-07
22 P14:83 P5:26 9.450000000e-07
23 P14:83 P6:32 9.450000000e-07
24 P14:83 P7:38 9.450000000e-07
25 P14:83 P8:44 9.450000000e-07
26 P14:83 P9:50 9.450000000e-07
*RES
1 P14:78 P14:80 3.078625000e+01
2 P14:80 P14:79 3.078625000e+01
3 P14:81 P14:83 1.203650000e+00
4 P14:83 P14:82 1.203650000e+00
5 P14:78 P14:81 1.000000000e+00
6 P14 P14:81 1.000000000e-06
*END

*D_NET P15 4.631703755e-02
*CONN
*P P15 B
*CAP
1 P15:86 2.356256430e-02
2 P15:89 2.533683250e-03
3 P10:56 P15:89 9.450000000e-07
4 P11:62 P15:89 9.450000000e-07
5 P12:68 P15:89 9.450000000e-07
6 P13:74 P15:89 9.450000000e-07
7 P14:80 P15:89 9.450000000e-07
8 P15:84 P17:100 1.616000000e-02
9 P15:84 P6:30 4.040000000e-03
10 P15:86 P16:95 9.450000000e-07
11 P15:86 P17:101 9.450000000e-07
12 P15:86 P18:107 9.450000000e-07
13 P15:86 P19:113 9.450000000e-07
14 P15:86 P20:119 9.450000000e-07
15 P15:86 P21:125 9.450000000e-07
16 P15:86 P22:131 9.450000000e-07
17 P15:86 P23:137 9.450000000e-07
18 P15:86 P24:143 9.450000000e-07
19 P15:86 P25:149 9.450000000e-07
20 P15:86 P26:155 9.450000000e-07
21 P15:89 P4:20 9.450000000e-07
22 P15:89 P5:26 9.450000000e-07
23 P15:89 P6:32 9.450000000e-07
24 P15:89 P7:38 9.450000000e-07
25 P15:89 P8:44 9.450000000e-07
26 P15:89 P9:50 9.450000000e-07
*RES
1 P15:84 P15:86 3.078625000e+01
2 P15:86 P15:85 3.078625000e+01
3 P15:87 P15:89 1.203650000e+00
4 P15:89 P15:88 1.203650000e+00
5 P15:84 P15:87 1.000000000e+00
6 P15 P15:84 1.000000000e-06
*END

*D_NET P16 4.631703755e-02
*CONN
*P P16 B
*CAP
1 P16:92 2.356256430e-02
2 P16:95 2.533683250e-03
3 P10:56 P16:95 9.450000000e-07
4 P11:62 P16:95 9.450000000e-07
5 P12:68 P16:95 9.450000000e-07
6 P13:74 P16:95 9.450000000e-07
7 P14:80 P16:95 9.450000000e-07
8 P15:86 P16:95 9.450000000e-07
9 P16:90 P17:100 1.616000000e-02
10 P16:90 P7:36 4.040000000e-03
11 P16:92 P17:101 9.450000000e-07
12 P16:92 P18:107 9.450000000e-07
13 P16:92 P19:113 9.450000000e-07
14 P16:92 P20:119 9.450000000e-07
15 P16:92 P21:125 9.450000000e-07
16 P16:92 P22:131 9.450000000e-07
17 P16:92 P23:137 9.450000000e-07
18 P16:92 P24:143 9.450000000e-07
19 P16:92 P25:149 9.450000000e-07
20 P16:92 P26:155 9.450000000e-07
21 P16:92 P27:161 9.450000000e-07
22 P16:95 P5:26 9.450000000e-07
23 P16:95 P6:32 9.450000000e-07
24 P16:95 P7:38 9.450000000e-07
25 P16:95 P8:44 9.450000000e-07
26 P16:95 P9:50 9.450000000e-07
*RES
1 P16:90 P16:92 3.078625000e+01
2 P16:92 P16:91 3.078625000e+01
3 P16:93 P16:95 1.203650000e+00
4 P16:95 P16:94 1.203650000e+00
5 P16:90 P16:93 1.000000000e+00
6 P16 P16:93 1.000000000e-06
*END

*D_NET P17 2.685170376e-01
*CONN
*P P17 B
*CAP
1 P17:101 2.533683250e-03
2 P17:98 2.356256430e-02
3 P10:54 P17:100 1.616000000e-02
4 P10:56 P17:101 9.450000000e-07
5 P11:60 P17:100 1.616000000e-02
6 P11:62 P17:101 9.450000000e-07
7 P12:66 P17:100 1.616000000e-02
8 P12:68 P17:101 9.450000000e-07
9 P13:72 P17:100 1.616000000e-02
10 P13:74 P17:101 9.450000000e-07
11 P14:78 P17:100 1.616000000e-02
12 P14:80 P17:101 9.450000000e-07
13 P15:84 P17:100 1.616000000e-02
14 P15:86 P17:101 9.450000000e-07
15 P16:90 P17:100 1.616000000e-02
16 P16:92 P17:101 9.450000000e-07
17 P17:100 P1:0 1.212000000e-01
18 P17:100 P9:48 8.080000000e-03
19 P17:101 P6:32 9.450000000e-07
20 P17:101 P7:38 9.450000000e-07
21 P17:101 P8:44 9.450000000e-07
22 P17:101 P9:50 9.450000000e-07
23 P17:98 P18:107 9.450000000e-07
24 P17:98 P19:113 9.450000000e-07
25 P17:98 P20:119 9.450000000e-07
26 P17:98 P21:125 9.450000000e-07
27 P17:98 P22:131 9.450000000e-07
28 P17:98 P23:137 9.450000000e-07
29 P17:98 P24:143 9.450000000e-07
30 P17:98 P25:149 9.450000000e-07
31 P17:98 P26:155 9.450000000e-07
32 P17:98 P27:161 9.450000000e-07
33 P17:98 P28:167 9.450000000e-07
*RES
1 P17:96 P17:98 3.078625000e+01
2 P17:98 P17:97 3.078625000e+01
3 P17:99 P17:101 1.203650000e+00
4 P17:101 P17:100 1.203650000e+00
5 P17:96 P17:99 1.000000000e+00
6 P17 P17:99 1.000000000e-06
*END

*D_NET P18 5.452703755e-02
*CONN
*P P18 B
*CAP
1 P18:104 2.356256430e-02
2 P18:107 2.533683250e-03
3 P10:56 P18:107 9.450000000e-07
4 P11:62 P18:107 9.450000000e-07
5 P12:68 P18:107 9.450000000e-07
6 P13:74 P18:107 9.450000000e-07
7 P14:80 P18:107 9.450000000e-07
8 P15:86 P18:107 9.450000000e-07
9 P16:92 P18:107 9.450000000e-07
10 P17:98 P18:107 9.450000000e-07
11 P18:102 P19:108 9.470000000e-03
12 P18:102 P1:0 4.040000000e-03
13 P18:102 P28:162 5.430000000e-03
14 P18:102 P8:42 9.470000000e-03
15 P18:104 P19:113 9.450000000e-07
16 P18:104 P20:119 9.450000000e-07
17 P18:104 P21:125 9.450000000e-07
18 P18:104 P22:131 9.450000000e-07
19 P18:104 P23:137 9.450000000e-07
20 P18:104 P24:143 9.450000000e-07
21 P18:104 P25:149 9.450000000e-07
22 P18:104 P26:155 9.450000000e-07
23 P18:104 P27:161 9.450000000e-07
24 P18:104 P28:167 9.450000000e-07
25 P18:104 P29:173 9.450000000e-07
26 P18:107 P7:38 9.450000000e-07
27 P18:107 P8:44 9.450000000e-07
28 P18:107 P9:50 9.450000000e-07
*RES
1 P18:102 P18:104 3.078625000e+01
2 P18:104 P18:103 3.078625000e+01
3 P18:105 P18:107 1.203650000e+00
4 P18:107 P18:106 1.203650000e+00
5 P18:102 P18:105 1.000000000e+00
6 P18 P18:105 1.000000000e-06
*END

*D_NET P19 3.558703755e-02
*CONN
*P P19 B
*CAP
1 P19:110 2.356256430e-02
2 P19:113 2.533683250e-03
3 P10:56 P19:113 9.450000000e-07
4 P11:62 P19:113 9.450000000e-07
5 P12:68 P19:113 9.450000000e-07
6 P13:74 P19:113 9.450000000e-07
7 P14:80 P19:113 9.450000000e-07
8 P15:86 P19:113 9.450000000e-07
9 P16:92 P19:113 9.450000000e-07
10 P17:98 P19:113 9.450000000e-07
11 P18:102 P19:108 9.470000000e-03
12 P18:104 P19:113 9.450000000e-07
13 P19:110 P20:119 9.450000000e-07
14 P19:110 P21:125 9.450000000e-07
15 P19:110 P22:131 9.450000000e-07
16 P19:110 P23:137 9.450000000e-07
17 P19:110 P24:143 9.450000000e-07
18 P19:110 P25:149 9.450000000e-07
19 P19:110 P26:155 9.450000000e-07
20 P19:110 P27:161 9.450000000e-07
21 P19:110 P28:167 9.450000000e-07
22 P19:110 P29:173 9.450000000e-07
23 P19:110 P30:179 9.450000000e-07
24 P19:113 P8:44 9.450000000e-07
25 P19:113 P9:50 9.450000000e-07
*RES
1 P19:108 P19:110 3.078625000e+01
2 P19:110 P19:109 3.078625000e+01
3 P19:111 P19:113 1.203650000e+00
4 P19:113 P19:112 1.203650000e+00
5 P19:108 P19:111 1.000000000e+00
6 P19 P19:111 1.000000000e-06
*END

*D_NET P2 5.451758755e-02
*CONN
*P P2 B
*CAP
1 P2:11 2.533683250e-03
2 P2:8 2.356256430e-02
3 P10:59 P2:8 9.450000000e-07
4 P11:60 P2:10 4.040000000e-03
5 P11:65 P2:8 9.450000000e-07
6 P12:71 P2:8 9.450000000e-07
7 P13:77 P2:8 9.450000000e-07
8 P1:2 P2:11 9.450000000e-07
9 P23:132 P2:10 5.430000000e-03
10 P2:10 P3:12 9.470000000e-03
11 P2:10 P8:42 9.470000000e-03
12 P2:8 P3:17 9.450000000e-07
13 P2:8 P4:23 9.450000000e-07
14 P2:8 P5:29 9.450000000e-07
15 P2:8 P6:35 9.450000000e-07
16 P2:8 P7:41 9.450000000e-07
17 P2:8 P8:47 9.450000000e-07
18 P2:8 P9:53 9.450000000e-07
*RES
1 P2:6 P2:8 3.078625000e+01
2 P2:8 P2:7 3.078625000e+01
3 P2:9 P2:11 1.203650000e+00
4 P2:11 P2:10 1.203650000e+00
5 P2:6 P2:9 1.000000000e+00
6 P2 P2:9 1.000000000e-06
*END

*D_NET P20 5.326609255e-02
*CONN
*P P20 B
*CAP
1 P20:116 2.356256430e-02
2 P20:119 2.533683250e-03
3 P10:56 P20:119 9.450000000e-07
4 P11:62 P20:119 9.450000000e-07
5 P12:68 P20:119 9.450000000e-07
6 P13:74 P20:119 9.450000000e-07
7 P14:80 P20:119 9.450000000e-07
8 P15:86 P20:119 9.450000000e-07
9 P16:92 P20:119 9.450000000e-07
10 P17:98 P20:119 9.450000000e-07
11 P18:104 P20:119 9.450000000e-07
12 P19:110 P20:119 9.450000000e-07
13 P20:114 P22:126 2.172000000e-02
14 P20:114 P8:42 5.430000000e-03
15 P20:116 P21:125 9.450000000e-07
16 P20:116 P22:131 9.450000000e-07
17 P20:116 P23:137 9.450000000e-07
18 P20:116 P24:143 9.450000000e-07
19 P20:116 P25:149 9.450000000e-07
20 P20:116 P26:155 9.450000000e-07
21 P20:116 P27:161 9.450000000e-07
22 P20:116 P28:167 9.450000000e-07
23 P20:116 P29:173 9.450000000e-07
24 P20:116 P30:179 9.450000000e-07
25 P20:119 P9:50 9.450000000e-07
*RES
1 P20:114 P20:116 3.078625000e+01
2 P20:116 P20:115 3.078625000e+01
3 P20:117 P20:119 1.203650000e+00
4 P20:119 P20:118 1.203650000e+00
5 P20:114 P20:117 1.000000000e+00
6 P20 P20:114 1.000000000e-06
*END

*D_NET P21 5.326514755e-02
*CONN
*P P21 B
*CAP
1 P21:122 2.356256430e-02
2 P21:125 2.533683250e-03
3 P10:56 P21:125 9.450000000e-07
4 P11:62 P21:125 9.450000000e-07
5 P12:68 P21:125 9.450000000e-07
6 P13:74 P21:125 9.450000000e-07
7 P14:80 P21:125 9.450000000e-07
8 P15:86 P21:125 9.450000000e-07
9 P16:92 P21:125 9.450000000e-07
10 P17:98 P21:125 9.450000000e-07
11 P18:104 P21:125 9.450000000e-07
12 P19:110 P21:125 9.450000000e-07
13 P20:116 P21:125 9.450000000e-07
14 P21:120 P22:126 2.172000000e-02
15 P21:120 P5:24 5.430000000e-03
16 P21:122 P22:131 9.450000000e-07
17 P21:122 P23:137 9.450000000e-07
18 P21:122 P24:143 9.450000000e-07
19 P21:122 P25:149 9.450000000e-07
20 P21:122 P26:155 9.450000000e-07
21 P21:122 P27:161 9.450000000e-07
22 P21:122 P28:167 9.450000000e-07
23 P21:122 P29:173 9.450000000e-07
24 P21:122 P30:179 9.450000000e-07
*RES
1 P21:120 P21:122 3.078625000e+01
2 P21:122 P21:121 3.078625000e+01
3 P21:123 P21:125 1.203650000e+00
4 P21:125 P21:124 1.203650000e+00
5 P21:120 P21:123 1.000000000e+00
6 P21 P21:123 1.000000000e-06
*END

*D_NET P22 3.599942025e-01
*CONN
*P P22 B
*CAP
1 P22:128 2.356256430e-02
2 P22:131 2.533683250e-03
3 P11:62 P22:131 9.450000000e-07
4 P12:68 P22:131 9.450000000e-07
5 P13:74 P22:131 9.450000000e-07
6 P14:80 P22:131 9.450000000e-07
7 P15:86 P22:131 9.450000000e-07
8 P16:92 P22:131 9.450000000e-07
9 P17:98 P22:131 9.450000000e-07
10 P18:104 P22:131 9.450000000e-07
11 P19:110 P22:131 9.450000000e-07
12 P20:114 P22:126 2.172000000e-02
13 P20:116 P22:131 9.450000000e-07
14 P21:120 P22:126 2.172000000e-02
15 P21:122 P22:131 9.450000000e-07
16 P22:126 P23:132 2.172000000e-02
17 P22:126 P24:138 2.172000000e-02
18 P22:126 P25:144 2.172000000e-02
19 P22:126 P26:150 2.172000000e-02
20 P22:126 P27:156 2.172000000e-02
21 P22:126 P28:162 1.737600000e-01
22 P22:126 P9:48 8.080000000e-03
23 P22:128 P23:137 9.450000000e-07
24 P22:128 P24:143 9.450000000e-07
25 P22:128 P25:149 9.450000000e-07
26 P22:128 P26:155 9.450000000e-07
27 P22:128 P27:161 9.450000000e-07
28 P22:128 P28:167 9.450000000e-07
29 P22:128 P29:173 9.450000000e-07
30 P22:128 P30:179 9.450000000e-07
*RES
1 P22:126 P22:128 3.078625000e+01
2 P22:128 P22:127 3.078625000e+01
3 P22:129 P22:131 1.203650000e+00
4 P22:131 P22:130 1.203650000e+00
5 P22:126 P22:129 1.000000000e+00
6 P22 P22:126 1.000000000e-06
*END

*D_NET P23 5.326325755e-02
*CONN
*P P23 B
*CAP
1 P23:134 2.356256430e-02
2 P23:137 2.533683250e-03
3 P12:68 P23:137 9.450000000e-07
4 P13:74 P23:137 9.450000000e-07
5 P14:80 P23:137 9.450000000e-07
6 P15:86 P23:137 9.450000000e-07
7 P16:92 P23:137 9.450000000e-07
8 P17:98 P23:137 9.450000000e-07
9 P18:104 P23:137 9.450000000e-07
10 P19:110 P23:137 9.450000000e-07
11 P20:116 P23:137 9.450000000e-07
12 P21:122 P23:137 9.450000000e-07
13 P22:126 P23:132 2.172000000e-02
14 P22:128 P23:137 9.450000000e-07
15 P23:132 P2:10 5.430000000e-03
16 P23:134 P24:143 9.450000000e-07
17 P23:134 P25:149 9.450000000e-07
18 P23:134 P26:155 9.450000000e-07
19 P23:134 P27:161 9.450000000e-07
20 P23:134 P28:167 9.450000000e-07
21 P23:134 P29:173 9.450000000e-07
22 P23:134 P30:179 9.450000000e-07
*RES
1 P23:132 P23:134 3.078625000e+01
2 P23:134 P23:133 3.078625000e+01
3 P23:135 P23:137 1.203650000e+00
4 P23:137 P23:136 1.203650000e+00
5 P23:132 P23:135 1.000000000e+00
6 P23 P23:132 1.000000000e-06
*END

*D_NET P24 5.326231255e-02
*CONN
*P P24 B
*CAP
1 P24:140 2.356256430e-02
2 P24:143 2.533683250e-03
3 P13:74 P24:143 9.450000000e-07
4 P14:80 P24:143 9.450000000e-07
5 P15:86 P24:143 9.450000000e-07
6 P16:92 P24:143 9.450000000e-07
7 P17:98 P24:143 9.450000000e-07
8 P18:104 P24:143 9.450000000e-07
9 P19:110 P24:143 9.450000000e-07
10 P20:116 P24:143 9.450000000e-07
11 P21:122 P24:143 9.450000000e-07
12 P22:126 P24:138 2.172000000e-02
13 P22:128 P24:143 9.450000000e-07
14 P23:134 P24:143 9.450000000e-07
15 P24:138 P3:12 5.430000000e-03
16 P24:140 P25:149 9.450000000e-07
17 P24:140 P26:155 9.450000000e-07
18 P24:140 P27:161 9.450000000e-07
19 P24:140 P28:167 9.450000000e-07
20 P24:140 P29:173 9.450000000e-07
21 P24:140 P30:179 9.450000000e-07
*RES
1 P24:138 P24:140 3.078625000e+01
2 P24:140 P24:139 3.078625000e+01
3 P24:141 P24:143 1.203650000e+00
4 P24:143 P24:142 1.203650000e+00
5 P24:138 P24:141 1.000000000e+00
6 P24 P24:138 1.000000000e-06
*END

*D_NET P25 5.326136755e-02
*CONN
*P P25 B
*CAP
1 P25:146 2.356256430e-02
2 P25:149 2.533683250e-03
3 P14:80 P25:149 9.450000000e-07
4 P15:86 P25:149 9.450000000e-07
5 P16:92 P25:149 9.450000000e-07
6 P17:98 P25:149 9.450000000e-07
7 P18:104 P25:149 9.450000000e-07
8 P19:110 P25:149 9.450000000e-07
9 P20:116 P25:149 9.450000000e-07
10 P21:122 P25:149 9.450000000e-07
11 P22:126 P25:144 2.172000000e-02
12 P22:128 P25:149 9.450000000e-07
13 P23:134 P25:149 9.450000000e-07
14 P24:140 P25:149 9.450000000e-07
15 P25:144 P4:18 5.430000000e-03
16 P25:146 P26:155 9.450000000e-07
17 P25:146 P27:161 9.450000000e-07
18 P25:146 P28:167 9.450000000e-07
19 P25:146 P29:173 9.450000000e-07
20 P25:146 P30:179 9.450000000e-07
*RES
1 P25:144 P25:146 3.078625000e+01
2 P25:146 P25:145 3.078625000e+01
3 P25:147 P25:149 1.203650000e+00
4 P25:149 P25:148 1.203650000e+00
5 P25:144 P25:147 1.000000000e+00
6 P25 P25:144 1.000000000e-06
*END

*D_NET P26 5.326042255e-02
*CONN
*P P26 B
*CAP
1 P26:152 2.356256430e-02
2 P26:155 2.533683250e-03
3 P15:86 P26:155 9.450000000e-07
4 P16:92 P26:155 9.450000000e-07
5 P17:98 P26:155 9.450000000e-07
6 P18:104 P26:155 9.450000000e-07
7 P19:110 P26:155 9.450000000e-07
8 P20:116 P26:155 9.450000000e-07
9 P21:122 P26:155 9.450000000e-07
10 P22:126 P26:150 2.172000000e-02
11 P22:128 P26:155 9.450000000e-07
12 P23:134 P26:155 9.450000000e-07
13 P24:140 P26:155 9.450000000e-07
14 P25:146 P26:155 9.450000000e-07
15 P26:150 P6:30 5.430000000e-03
16 P26:152 P27:161 9.450000000e-07
17 P26:152 P28:167 9.450000000e-07
18 P26:152 P29:173 9.450000000e-07
19 P26:152 P30:179 9.450000000e-07
*RES
1 P26:150 P26:152 3.078625000e+01
2 P26:152 P26:151 3.078625000e+01
3 P26:153 P26:155 1.203650000e+00
4 P26:155 P26:154 1.203650000e+00
5 P26:150 P26:153 1.000000000e+00
6 P26 P26:153 1.000000000e-06
*END

*D_NET P27 5.325947755e-02
*CONN
*P P27 B
*CAP
1 P27:158 2.356256430e-02
2 P27:161 2.533683250e-03
3 P16:92 P27:161 9.450000000e-07
4 P17:98 P27:161 9.450000000e-07
5 P18:104 P27:161 9.450000000e-07
6 P19:110 P27:161 9.450000000e-07
7 P20:116 P27:161 9.450000000e-07
8 P21:122 P27:161 9.450000000e-07
9 P22:126 P27:156 2.172000000e-02
10 P22:128 P27:161 9.450000000e-07
11 P23:134 P27:161 9.450000000e-07
12 P24:140 P27:161 9.450000000e-07
13 P25:146 P27:161 9.450000000e-07
14 P26:152 P27:161 9.450000000e-07
15 P27:156 P7:36 5.430000000e-03
16 P27:158 P28:167 9.450000000e-07
17 P27:158 P29:173 9.450000000e-07
18 P27:158 P30:179 9.450000000e-07
*RES
1 P27:156 P27:158 3.078625000e+01
2 P27:158 P27:157 3.078625000e+01
3 P27:159 P27:161 1.203650000e+00
4 P27:161 P27:160 1.203650000e+00
5 P27:156 P27:159 1.000000000e+00
6 P27 P27:159 1.000000000e-06
*END

*D_NET P28 2.107285325e-01
*CONN
*P P28 B
*CAP
1 P28:164 2.356256430e-02
2 P28:167 2.533683250e-03
3 P17:98 P28:167 9.450000000e-07
4 P18:102 P28:162 5.430000000e-03
5 P18:104 P28:167 9.450000000e-07
6 P19:110 P28:167 9.450000000e-07
7 P20:116 P28:167 9.450000000e-07
8 P21:122 P28:167 9.450000000e-07
9 P22:126 P28:162 1.737600000e-01
10 P22:128 P28:167 9.450000000e-07
11 P23:134 P28:167 9.450000000e-07
12 P24:140 P28:167 9.450000000e-07
13 P25:146 P28:167 9.450000000e-07
14 P26:152 P28:167 9.450000000e-07
15 P27:158 P28:167 9.450000000e-07
16 P28:162 P8:42 5.430000000e-03
17 P28:164 P29:173 9.450000000e-07
18 P28:164 P30:179 9.450000000e-07
*RES
1 P28:162 P28:164 3.078625000e+01
2 P28:164 P28:163 3.078625000e+01
3 P28:165 P28:167 1.203650000e+00
4 P28:167 P28:166 1.203650000e+00
5 P28:162 P28:165 1.000000000e+00
6 P28 P28:165 1.000000000e-06
*END

*D_NET P29 2.610758755e-02
*CONN
*P P29 B
*CAP
1 P29:170 2.356256430e-02
2 P29:173 2.533683250e-03
3 P18:104 P29:173 9.450000000e-07
4 P19:110 P29:173 9.450000000e-07
5 P20:116 P29:173 9.450000000e-07
6 P21:122 P29:173 9.450000000e-07
7 P22:128 P29:173 9.450000000e-07
8 P23:134 P29:173 9.450000000e-07
9 P24:140 P29:173 9.450000000e-07
10 P25:146 P29:173 9.450000000e-07
11 P26:152 P29:173 9.450000000e-07
12 P27:158 P29:173 9.450000000e-07
13 P28:164 P29:173 9.450000000e-07
14 P29:170 P30:179 9.450000000e-07
*RES
1 P29:168 P29:170 3.078625000e+01
2 P29:170 P29:169 3.078625000e+01
3 P29:171 P29:173 1.203650000e+00
4 P29:173 P29:172 1.203650000e+00
5 P29:168 P29:171 1.000000000e+00
6 P29 P29:168 1.000000000e-06
*END

*D_NET P3 5.451853255e-02
*CONN
*P P3 B
*CAP
1 P3:14 2.356256430e-02
2 P3:17 2.533683250e-03
3 P10:59 P3:14 9.450000000e-07
4 P11:65 P3:14 9.450000000e-07
5 P12:66 P3:12 4.040000000e-03
6 P12:71 P3:14 9.450000000e-07
7 P13:77 P3:14 9.450000000e-07
8 P14:83 P3:14 9.450000000e-07
9 P1:2 P3:17 9.450000000e-07
10 P24:138 P3:12 5.430000000e-03
11 P2:10 P3:12 9.470000000e-03
12 P2:8 P3:17 9.450000000e-07
13 P3:12 P4:18 9.470000000e-03
14 P3:14 P4:23 9.450000000e-07
15 P3:14 P5:29 9.450000000e-07
16 P3:14 P6:35 9.450000000e-07
17 P3:14 P7:41 9.450000000e-07
18 P3:14 P8:47 9.450000000e-07
19 P3:14 P9:53 9.450000000e-07
*RES
1 P3:12 P3:14 3.078625000e+01
2 P3:14 P3:13 3.078625000e+01
3 P3:15 P3:17 1.203650000e+00
4 P3:17 P3:16 1.203650000e+00
5 P3:12 P3:15 1.000000000e+00
6 P3 P3:12 1.000000000e-06
*END

*D_NET P30 2.610664255e-02
*CONN
*P P30 B
*CAP
1 P30:176 2.356256430e-02
2 P30:179 2.533683250e-03
3 P19:110 P30:179 9.450000000e-07
4 P20:116 P30:179 9.450000000e-07
5 P21:122 P30:179 9.450000000e-07
6 P22:128 P30:179 9.450000000e-07
7 P23:134 P30:179 9.450000000e-07
8 P24:140 P30:179 9.450000000e-07
9 P25:146 P30:179 9.450000000e-07
10 P26:152 P30:179 9.450000000e-07
11 P27:158 P30:179 9.450000000e-07
12 P28:164 P30:179 9.450000000e-07
13 P29:170 P30:179 9.450000000e-07
*RES
1 P30:174 P30:176 3.078625000e+01
2 P30:176 P30:175 3.078625000e+01
3 P30:177 P30:179 1.203650000e+00
4 P30:179 P30:178 1.203650000e+00
5 P30:174 P30:177 1.000000000e+00
6 P30 P30:177 1.000000000e-06
*END

*D_NET P4 5.451947755e-02
*CONN
*P P4 B
*CAP
1 P4:20 2.356256430e-02
2 P4:23 2.533683250e-03
3 P10:59 P4:20 9.450000000e-07
4 P11:65 P4:20 9.450000000e-07
5 P12:71 P4:20 9.450000000e-07
6 P13:72 P4:18 4.040000000e-03
7 P13:77 P4:20 9.450000000e-07
8 P14:83 P4:20 9.450000000e-07
9 P15:89 P4:20 9.450000000e-07
10 P1:2 P4:23 9.450000000e-07
11 P25:144 P4:18 5.430000000e-03
12 P2:8 P4:23 9.450000000e-07
13 P3:12 P4:18 9.470000000e-03
14 P3:14 P4:23 9.450000000e-07
15 P4:18 P5:24 9.470000000e-03
16 P4:20 P5:29 9.450000000e-07
17 P4:20 P6:35 9.450000000e-07
18 P4:20 P7:41 9.450000000e-07
19 P4:20 P8:47 9.450000000e-07
20 P4:20 P9:53 9.450000000e-07
*RES
1 P4:18 P4:20 3.078625000e+01
2 P4:20 P4:19 3.078625000e+01
3 P4:21 P4:23 1.203650000e+00
4 P4:23 P4:22 1.203650000e+00
5 P4:18 P4:21 1.000000000e+00
6 P4 P4:18 1.000000000e-06
*END

*D_NET P5 5.452042255e-02
*CONN
*P P5 B
*CAP
1 P5:26 2.356256430e-02
2 P5:29 2.533683250e-03
3 P10:59 P5:26 9.450000000e-07
4 P11:65 P5:26 9.450000000e-07
5 P12:71 P5:26 9.450000000e-07
6 P13:77 P5:26 9.450000000e-07
7 P14:78 P5:24 4.040000000e-03
8 P14:83 P5:26 9.450000000e-07
9 P15:89 P5:26 9.450000000e-07
10 P16:95 P5:26 9.450000000e-07
11 P1:2 P5:29 9.450000000e-07
12 P21:120 P5:24 5.430000000e-03
13 P2:8 P5:29 9.450000000e-07
14 P3:14 P5:29 9.450000000e-07
15 P4:18 P5:24 9.470000000e-03
16 P4:20 P5:29 9.450000000e-07
17 P5:24 P6:30 9.470000000e-03
18 P5:26 P6:35 9.450000000e-07
19 P5:26 P7:41 9.450000000e-07
20 P5:26 P8:47 9.450000000e-07
21 P5:26 P9:53 9.450000000e-07
*RES
1 P5:24 P5:26 3.078625000e+01
2 P5:26 P5:25 3.078625000e+01
3 P5:27 P5:29 1.203650000e+00
4 P5:29 P5:28 1.203650000e+00
5 P5:24 P5:27 1.000000000e+00
6 P5 P5:27 1.000000000e-06
*END

*D_NET P6 5.452136755e-02
*CONN
*P P6 B
*CAP
1 P6:32 2.356256430e-02
2 P6:35 2.533683250e-03
3 P10:59 P6:32 9.450000000e-07
4 P11:65 P6:32 9.450000000e-07
5 P12:71 P6:32 9.450000000e-07
6 P13:77 P6:32 9.450000000e-07
7 P14:83 P6:32 9.450000000e-07
8 P15:84 P6:30 4.040000000e-03
9 P15:89 P6:32 9.450000000e-07
10 P16:95 P6:32 9.450000000e-07
11 P17:101 P6:32 9.450000000e-07
12 P1:2 P6:35 9.450000000e-07
13 P26:150 P6:30 5.430000000e-03
14 P2:8 P6:35 9.450000000e-07
15 P3:14 P6:35 9.450000000e-07
16 P4:20 P6:35 9.450000000e-07
17 P5:24 P6:30 9.470000000e-03
18 P5:26 P6:35 9.450000000e-07
19 P6:30 P7:36 9.470000000e-03
20 P6:32 P7:41 9.450000000e-07
21 P6:32 P8:47 9.450000000e-07
22 P6:32 P9:53 9.450000000e-07
*RES
1 P6:30 P6:32 3.078625000e+01
2 P6:32 P6:31 3.078625000e+01
3 P6:33 P6:35 1.203650000e+00
4 P6:35 P6:34 1.203650000e+00
5 P6:30 P6:33 1.000000000e+00
6 P6 P6:33 1.000000000e-06
*END

*D_NET P7 5.452231255e-02
*CONN
*P P7 B
*CAP
1 P7:38 2.356256430e-02
2 P7:41 2.533683250e-03
3 P10:59 P7:38 9.450000000e-07
4 P11:65 P7:38 9.450000000e-07
5 P12:71 P7:38 9.450000000e-07
6 P13:77 P7:38 9.450000000e-07
7 P14:83 P7:38 9.450000000e-07
8 P15:89 P7:38 9.450000000e-07
9 P16:90 P7:36 4.040000000e-03
10 P16:95 P7:38 9.450000000e-07
11 P17:101 P7:38 9.450000000e-07
12 P18:107 P7:38 9.450000000e-07
13 P1:2 P7:41 9.450000000e-07
14 P27:156 P7:36 5.430000000e-03
15 P2:8 P7:41 9.450000000e-07
16 P3:14 P7:41 9.450000000e-07
17 P4:20 P7:41 9.450000000e-07
18 P5:26 P7:41 9.450000000e-07
19 P6:30 P7:36 9.470000000e-03
20 P6:32 P7:41 9.450000000e-07
21 P7:36 P8:42 9.470000000e-03
22 P7:38 P8:47 9.450000000e-07
23 P7:38 P9:53 9.450000000e-07
*RES
1 P7:36 P7:38 3.078625000e+01
2 P7:38 P7:37 3.078625000e+01
3 P7:39 P7:41 1.203650000e+00
4 P7:41 P7:40 1.203650000e+00
5 P7:36 P7:39 1.000000000e+00
6 P7 P7:39 1.000000000e-06
*END

*D_NET P8 7.346325755e-02
*CONN
*P P8 B
*CAP
1 P8:44 2.356256430e-02
2 P8:47 2.533683250e-03
3 P10:54 P8:42 4.040000000e-03
4 P10:59 P8:44 9.450000000e-07
5 P11:65 P8:44 9.450000000e-07
6 P12:71 P8:44 9.450000000e-07
7 P13:77 P8:44 9.450000000e-07
8 P14:83 P8:44 9.450000000e-07
9 P15:89 P8:44 9.450000000e-07
10 P16:95 P8:44 9.450000000e-07
11 P17:101 P8:44 9.450000000e-07
12 P18:102 P8:42 9.470000000e-03
13 P18:107 P8:44 9.450000000e-07
14 P19:113 P8:44 9.450000000e-07
15 P1:0 P8:42 4.040000000e-03
16 P1:2 P8:47 9.450000000e-07
17 P20:114 P8:42 5.430000000e-03
18 P28:162 P8:42 5.430000000e-03
19 P2:10 P8:42 9.470000000e-03
20 P2:8 P8:47 9.450000000e-07
21 P3:14 P8:47 9.450000000e-07
22 P4:20 P8:47 9.450000000e-07
23 P5:26 P8:47 9.450000000e-07
24 P6:32 P8:47 9.450000000e-07
25 P7:36 P8:42 9.470000000e-03
26 P7:38 P8:47 9.450000000e-07
27 P8:44 P9:53 9.450000000e-07
*RES
1 P8:42 P8:44 3.078625000e+01
2 P8:44 P8:43 3.078625000e+01
3 P8:45 P8:47 1.203650000e+00
4 P8:47 P8:46 1.203650000e+00
5 P8:42 P8:45 1.000000000e+00
6 P8 P8:45 1.000000000e-06
*END

*D_NET P9 4.227420255e-02
*CONN
*P P9 B
*CAP
1 P9:50 2.356256430e-02
2 P9:53 2.533683250e-03
3 P10:59 P9:50 9.450000000e-07
4 P11:65 P9:50 9.450000000e-07
5 P12:71 P9:50 9.450000000e-07
6 P13:77 P9:50 9.450000000e-07
7 P14:83 P9:50 9.450000000e-07
8 P15:89 P9:50 9.450000000e-07
9 P16:95 P9:50 9.450000000e-07
10 P17:100 P9:48 8.080000000e-03
11 P17:101 P9:50 9.450000000e-07
12 P18:107 P9:50 9.450000000e-07
13 P19:113 P9:50 9.450000000e-07
14 P1:2 P9:53 9.450000000e-07
15 P20:119 P9:50 9.450000000e-07
16 P22:126 P9:48 8.080000000e-03
17 P2:8 P9:53 9.450000000e-07
18 P3:14 P9:53 9.450000000e-07
19 P4:20 P9:53 9.450000000e-07
20 P5:26 P9:53 9.450000000e-07
21 P6:32 P9:53 9.450000000e-07
22 P7:38 P9:53 9.450000000e-07
23 P8:44 P9:53 9.450000000e-07
*RES
1 P9:48 P9:50 3.078625000e+01
2 P9:50 P9:49 3.078625000e+01
3 P9:51 P9:53 1.203650000e+00
4 P9:53 P9:52 1.203650000e+00
5 P9:48 P9:51 1.000000000e+00
6 P9 P9:48 1.000000000e-06
*END

