*SPEF "IEEE 1481-1998"
*DESIGN "TOP"
*DATE "2026-01-01T00:00:00"
*VENDOR "TR-1um flow"
*PROGRAM "extract_tr1um_parasitics"
*VERSION "3.0"
*DESIGN_FLOW "PIN_CAP NONE" "NAME_SCOPE LOCAL"
*DIVIDER /
*DELIMITER :
*BUS_DELIMITER [ ]
*T_UNIT 1 NS
*C_UNIT 1 PF
*R_UNIT 1 OHM
*L_UNIT 1 HENRY

*D_NET P1 5.425134912e+00
*CONN
*P P1 B
*CAP
1 P1:2 3.279299724e-01
2 P1:5 4.557314475e-02
3 P10:56 P1:2 1.452474000e-01
4 P10:59 P1:2 9.450000000e-07
5 P11:62 P1:2 1.442474000e-01
6 P11:65 P1:2 9.450000000e-07
7 P12:68 P1:2 1.432474000e-01
8 P12:71 P1:2 9.450000000e-07
9 P1:0 P3:12 2.172000000e-01
10 P1:0 P6:30 4.344000000e-01
11 P1:0 P7:36 9.774000000e-01
12 P1:0 P9:48 1.791900000e+00
13 P1:2 P2:11 9.450000000e-07
14 P1:2 P2:8 1.532474000e-01
15 P1:2 P3:14 1.522474000e-01
16 P1:2 P3:17 9.450000000e-07
17 P1:2 P4:20 1.512474000e-01
18 P1:2 P4:23 9.450000000e-07
19 P1:2 P5:26 1.502474000e-01
20 P1:2 P5:29 9.450000000e-07
21 P1:2 P6:32 1.492474000e-01
22 P1:2 P6:35 9.450000000e-07
23 P1:2 P7:38 1.482474000e-01
24 P1:2 P7:41 9.450000000e-07
25 P1:2 P8:44 1.472474000e-01
26 P1:2 P8:47 9.450000000e-07
27 P1:2 P9:50 1.462474000e-01
28 P1:2 P9:53 9.450000000e-07
*RES
1 P1:0 P1:2 4.284650000e+02
2 P1:2 P1:1 4.284650000e+02
3 P1:3 P1:5 2.164995000e+01
4 P1:5 P1:4 2.164995000e+01
5 P1:0 P1:3 1.000000000e+00
6 P1 P1:3 0.000000000e+00
*END

*D_NET P10 4.628634912e+00
*CONN
*P P10 B
*CAP
1 P10:56 3.279299724e-01
2 P10:59 4.557314475e-02
3 P10:54 P5:24 1.303200000e+00
4 P10:54 P6:30 1.303200000e+00
5 P10:56 P11:62 1.532474000e-01
6 P10:56 P11:65 9.450000000e-07
7 P10:56 P12:68 1.522474000e-01
8 P10:56 P12:71 9.450000000e-07
9 P10:56 P1:2 1.452474000e-01
10 P10:56 P2:8 1.462474000e-01
11 P10:56 P3:14 1.472474000e-01
12 P10:56 P4:20 1.482474000e-01
13 P10:56 P5:26 1.492474000e-01
14 P10:56 P6:32 1.502474000e-01
15 P10:56 P7:38 1.512474000e-01
16 P10:56 P8:44 1.522474000e-01
17 P10:56 P9:50 1.532474000e-01
18 P10:59 P1:2 9.450000000e-07
19 P10:59 P2:8 9.450000000e-07
20 P10:59 P3:14 9.450000000e-07
21 P10:59 P4:20 9.450000000e-07
22 P10:59 P5:26 9.450000000e-07
23 P10:59 P6:32 9.450000000e-07
24 P10:59 P7:38 9.450000000e-07
25 P10:59 P8:44 9.450000000e-07
26 P10:59 P9:50 9.450000000e-07
*RES
1 P10:54 P10:56 4.284650000e+02
2 P10:56 P10:55 4.284650000e+02
3 P10:57 P10:59 2.164995000e+01
4 P10:59 P10:58 2.164995000e+01
5 P10:54 P10:57 1.000000000e+00
6 P10 P10:57 0.000000000e+00
*END

*D_NET P11 4.620634912e+00
*CONN
*P P11 B
*CAP
1 P11:62 3.279299724e-01
2 P11:65 4.557314475e-02
3 P10:56 P11:62 1.532474000e-01
4 P10:56 P11:65 9.450000000e-07
5 P11:60 P6:30 1.303200000e+00
6 P11:60 P8:42 1.303200000e+00
7 P11:62 P12:68 1.532474000e-01
8 P11:62 P12:71 9.450000000e-07
9 P11:62 P1:2 1.442474000e-01
10 P11:62 P2:8 1.452474000e-01
11 P11:62 P3:14 1.462474000e-01
12 P11:62 P4:20 1.472474000e-01
13 P11:62 P5:26 1.482474000e-01
14 P11:62 P6:32 1.492474000e-01
15 P11:62 P7:38 1.502474000e-01
16 P11:62 P8:44 1.512474000e-01
17 P11:62 P9:50 1.522474000e-01
18 P11:65 P1:2 9.450000000e-07
19 P11:65 P2:8 9.450000000e-07
20 P11:65 P3:14 9.450000000e-07
21 P11:65 P4:20 9.450000000e-07
22 P11:65 P5:26 9.450000000e-07
23 P11:65 P6:32 9.450000000e-07
24 P11:65 P7:38 9.450000000e-07
25 P11:65 P8:44 9.450000000e-07
26 P11:65 P9:50 9.450000000e-07
*RES
1 P11:60 P11:62 4.284650000e+02
2 P11:62 P11:61 4.284650000e+02
3 P11:63 P11:65 2.164995000e+01
4 P11:65 P11:64 2.164995000e+01
5 P11:60 P11:63 1.000000000e+00
6 P11 P11:60 0.000000000e+00
*END

*D_NET P12 2.913234912e+00
*CONN
*P P12 B
*CAP
1 P12:68 3.279299724e-01
2 P12:71 4.557314475e-02
3 P10:56 P12:68 1.522474000e-01
4 P10:56 P12:71 9.450000000e-07
5 P11:62 P12:68 1.532474000e-01
6 P11:62 P12:71 9.450000000e-07
7 P12:66 P4:18 1.212000000e-01
8 P12:66 P5:24 5.454000000e-01
9 P12:66 P8:42 2.424000000e-01
10 P12:68 P1:2 1.432474000e-01
11 P12:68 P2:8 1.442474000e-01
12 P12:68 P3:14 1.452474000e-01
13 P12:68 P4:20 1.462474000e-01
14 P12:68 P5:26 1.472474000e-01
15 P12:68 P6:32 1.482474000e-01
16 P12:68 P7:38 1.492474000e-01
17 P12:68 P8:44 1.502474000e-01
18 P12:68 P9:50 1.512474000e-01
19 P12:71 P1:2 9.450000000e-07
20 P12:71 P2:8 9.450000000e-07
21 P12:71 P3:14 9.450000000e-07
22 P12:71 P4:20 9.450000000e-07
23 P12:71 P5:26 9.450000000e-07
24 P12:71 P6:32 9.450000000e-07
25 P12:71 P7:38 9.450000000e-07
26 P12:71 P8:44 9.450000000e-07
27 P12:71 P9:50 9.450000000e-07
*RES
1 P12:66 P12:68 4.284650000e+02
2 P12:68 P12:67 4.284650000e+02
3 P12:69 P12:71 2.164995000e+01
4 P12:71 P12:70 2.164995000e+01
5 P12:66 P12:69 1.000000000e+00
6 P12 P12:69 0.000000000e+00
*END

*D_NET P2 2.074834912e+00
*CONN
*P P2 B
*CAP
1 P2:11 4.557314475e-02
2 P2:8 3.279299724e-01
3 P10:56 P2:8 1.462474000e-01
4 P10:59 P2:8 9.450000000e-07
5 P11:62 P2:8 1.452474000e-01
6 P11:65 P2:8 9.450000000e-07
7 P12:68 P2:8 1.442474000e-01
8 P12:71 P2:8 9.450000000e-07
9 P1:2 P2:11 9.450000000e-07
10 P1:2 P2:8 1.532474000e-01
11 P2:10 P3:12 6.060000000e-02
12 P2:8 P3:14 1.532474000e-01
13 P2:8 P3:17 9.450000000e-07
14 P2:8 P4:20 1.522474000e-01
15 P2:8 P4:23 9.450000000e-07
16 P2:8 P5:26 1.512474000e-01
17 P2:8 P5:29 9.450000000e-07
18 P2:8 P6:32 1.502474000e-01
19 P2:8 P6:35 9.450000000e-07
20 P2:8 P7:38 1.492474000e-01
21 P2:8 P7:41 9.450000000e-07
22 P2:8 P8:44 1.482474000e-01
23 P2:8 P8:47 9.450000000e-07
24 P2:8 P9:50 1.472474000e-01
25 P2:8 P9:53 9.450000000e-07
*RES
1 P2:6 P2:8 4.284650000e+02
2 P2:8 P2:7 4.284650000e+02
3 P2:9 P2:11 2.164995000e+01
4 P2:11 P2:10 2.164995000e+01
5 P2:6 P2:9 1.000000000e+00
6 P2 P2:6 0.000000000e+00
*END

*D_NET P3 2.481834912e+00
*CONN
*P P3 B
*CAP
1 P3:14 3.279299724e-01
2 P3:17 4.557314475e-02
3 P10:56 P3:14 1.472474000e-01
4 P10:59 P3:14 9.450000000e-07
5 P11:62 P3:14 1.462474000e-01
6 P11:65 P3:14 9.450000000e-07
7 P12:68 P3:14 1.452474000e-01
8 P12:71 P3:14 9.450000000e-07
9 P1:0 P3:12 2.172000000e-01
10 P1:2 P3:14 1.522474000e-01
11 P1:2 P3:17 9.450000000e-07
12 P2:10 P3:12 6.060000000e-02
13 P2:8 P3:14 1.532474000e-01
14 P2:8 P3:17 9.450000000e-07
15 P3:12 P4:18 1.212000000e-01
16 P3:12 P5:24 6.060000000e-02
17 P3:14 P4:20 1.532474000e-01
18 P3:14 P4:23 9.450000000e-07
19 P3:14 P5:26 1.522474000e-01
20 P3:14 P5:29 9.450000000e-07
21 P3:14 P6:32 1.512474000e-01
22 P3:14 P6:35 9.450000000e-07
23 P3:14 P7:38 1.502474000e-01
24 P3:14 P7:41 9.450000000e-07
25 P3:14 P8:44 1.492474000e-01
26 P3:14 P8:47 9.450000000e-07
27 P3:14 P9:50 1.482474000e-01
28 P3:14 P9:53 9.450000000e-07
*RES
1 P3:12 P3:14 4.284650000e+02
2 P3:14 P3:13 4.284650000e+02
3 P3:15 P3:17 2.164995000e+01
4 P3:17 P3:16 2.164995000e+01
5 P3:12 P3:15 1.000000000e+00
6 P3 P3:15 0.000000000e+00
*END

*D_NET P4 2.270634912e+00
*CONN
*P P4 B
*CAP
1 P4:20 3.279299724e-01
2 P4:23 4.557314475e-02
3 P10:56 P4:20 1.482474000e-01
4 P10:59 P4:20 9.450000000e-07
5 P11:62 P4:20 1.472474000e-01
6 P11:65 P4:20 9.450000000e-07
7 P12:66 P4:18 1.212000000e-01
8 P12:68 P4:20 1.462474000e-01
9 P12:71 P4:20 9.450000000e-07
10 P1:2 P4:20 1.512474000e-01
11 P1:2 P4:23 9.450000000e-07
12 P2:8 P4:20 1.522474000e-01
13 P2:8 P4:23 9.450000000e-07
14 P3:12 P4:18 1.212000000e-01
15 P3:14 P4:20 1.532474000e-01
16 P3:14 P4:23 9.450000000e-07
17 P4:20 P5:26 1.532474000e-01
18 P4:20 P5:29 9.450000000e-07
19 P4:20 P6:32 1.522474000e-01
20 P4:20 P6:35 9.450000000e-07
21 P4:20 P7:38 1.512474000e-01
22 P4:20 P7:41 9.450000000e-07
23 P4:20 P8:44 1.502474000e-01
24 P4:20 P8:47 9.450000000e-07
25 P4:20 P9:50 1.492474000e-01
26 P4:20 P9:53 9.450000000e-07
*RES
1 P4:18 P4:20 4.284650000e+02
2 P4:20 P4:19 4.284650000e+02
3 P4:21 P4:23 2.164995000e+01
4 P4:23 P4:22 2.164995000e+01
5 P4:18 P4:21 1.000000000e+00
6 P4 P4:18 0.000000000e+00
*END

*D_NET P5 4.608034912e+00
*CONN
*P P5 B
*CAP
1 P5:26 3.279299724e-01
2 P5:29 4.557314475e-02
3 P10:54 P5:24 1.303200000e+00
4 P10:56 P5:26 1.492474000e-01
5 P10:59 P5:26 9.450000000e-07
6 P11:62 P5:26 1.482474000e-01
7 P11:65 P5:26 9.450000000e-07
8 P12:66 P5:24 5.454000000e-01
9 P12:68 P5:26 1.472474000e-01
10 P12:71 P5:26 9.450000000e-07
11 P1:2 P5:26 1.502474000e-01
12 P1:2 P5:29 9.450000000e-07
13 P2:8 P5:26 1.512474000e-01
14 P2:8 P5:29 9.450000000e-07
15 P3:12 P5:24 6.060000000e-02
16 P3:14 P5:26 1.522474000e-01
17 P3:14 P5:29 9.450000000e-07
18 P4:20 P5:26 1.532474000e-01
19 P4:20 P5:29 9.450000000e-07
20 P5:24 P7:36 5.454000000e-01
21 P5:24 P8:42 1.212000000e-01
22 P5:26 P6:32 1.532474000e-01
23 P5:26 P6:35 9.450000000e-07
24 P5:26 P7:38 1.522474000e-01
25 P5:26 P7:41 9.450000000e-07
26 P5:26 P8:44 1.512474000e-01
27 P5:26 P8:47 9.450000000e-07
28 P5:26 P9:50 1.502474000e-01
29 P5:26 P9:53 9.450000000e-07
*RES
1 P5:24 P5:26 4.284650000e+02
2 P5:26 P5:25 4.284650000e+02
3 P5:27 P5:29 2.164995000e+01
4 P5:29 P5:28 2.164995000e+01
5 P5:24 P5:27 1.000000000e+00
6 P5 P5:27 0.000000000e+00
*END

*D_NET P6 5.075034912e+00
*CONN
*P P6 B
*CAP
1 P6:32 3.279299724e-01
2 P6:35 4.557314475e-02
3 P10:54 P6:30 1.303200000e+00
4 P10:56 P6:32 1.502474000e-01
5 P10:59 P6:32 9.450000000e-07
6 P11:60 P6:30 1.303200000e+00
7 P11:62 P6:32 1.492474000e-01
8 P11:65 P6:32 9.450000000e-07
9 P12:68 P6:32 1.482474000e-01
10 P12:71 P6:32 9.450000000e-07
11 P1:0 P6:30 4.344000000e-01
12 P1:2 P6:32 1.492474000e-01
13 P1:2 P6:35 9.450000000e-07
14 P2:8 P6:32 1.502474000e-01
15 P2:8 P6:35 9.450000000e-07
16 P3:14 P6:32 1.512474000e-01
17 P3:14 P6:35 9.450000000e-07
18 P4:20 P6:32 1.522474000e-01
19 P4:20 P6:35 9.450000000e-07
20 P5:26 P6:32 1.532474000e-01
21 P5:26 P6:35 9.450000000e-07
22 P6:32 P7:38 1.532474000e-01
23 P6:32 P7:41 9.450000000e-07
24 P6:32 P8:44 1.522474000e-01
25 P6:32 P8:47 9.450000000e-07
26 P6:32 P9:50 1.512474000e-01
27 P6:32 P9:53 9.450000000e-07
*RES
1 P6:30 P6:32 4.284650000e+02
2 P6:32 P6:31 4.284650000e+02
3 P6:33 P6:35 2.164995000e+01
4 P6:35 P6:34 2.164995000e+01
5 P6:30 P6:33 1.000000000e+00
6 P6 P6:33 0.000000000e+00
*END

*D_NET P7 3.557034912e+00
*CONN
*P P7 B
*CAP
1 P7:38 3.279299724e-01
2 P7:41 4.557314475e-02
3 P10:56 P7:38 1.512474000e-01
4 P10:59 P7:38 9.450000000e-07
5 P11:62 P7:38 1.502474000e-01
6 P11:65 P7:38 9.450000000e-07
7 P12:68 P7:38 1.492474000e-01
8 P12:71 P7:38 9.450000000e-07
9 P1:0 P7:36 9.774000000e-01
10 P1:2 P7:38 1.482474000e-01
11 P1:2 P7:41 9.450000000e-07
12 P2:8 P7:38 1.492474000e-01
13 P2:8 P7:41 9.450000000e-07
14 P3:14 P7:38 1.502474000e-01
15 P3:14 P7:41 9.450000000e-07
16 P4:20 P7:38 1.512474000e-01
17 P4:20 P7:41 9.450000000e-07
18 P5:24 P7:36 5.454000000e-01
19 P5:26 P7:38 1.522474000e-01
20 P5:26 P7:41 9.450000000e-07
21 P6:32 P7:38 1.532474000e-01
22 P6:32 P7:41 9.450000000e-07
23 P7:38 P8:44 1.532474000e-01
24 P7:38 P8:47 9.450000000e-07
25 P7:38 P9:50 1.522474000e-01
26 P7:38 P9:53 9.450000000e-07
*RES
1 P7:36 P7:38 4.284650000e+02
2 P7:38 P7:37 4.284650000e+02
3 P7:39 P7:41 2.164995000e+01
4 P7:41 P7:40 2.164995000e+01
5 P7:36 P7:39 1.000000000e+00
6 P7 P7:36 0.000000000e+00
*END

*D_NET P8 3.699034912e+00
*CONN
*P P8 B
*CAP
1 P8:44 3.279299724e-01
2 P8:47 4.557314475e-02
3 P10:56 P8:44 1.522474000e-01
4 P10:59 P8:44 9.450000000e-07
5 P11:60 P8:42 1.303200000e+00
6 P11:62 P8:44 1.512474000e-01
7 P11:65 P8:44 9.450000000e-07
8 P12:66 P8:42 2.424000000e-01
9 P12:68 P8:44 1.502474000e-01
10 P12:71 P8:44 9.450000000e-07
11 P1:2 P8:44 1.472474000e-01
12 P1:2 P8:47 9.450000000e-07
13 P2:8 P8:44 1.482474000e-01
14 P2:8 P8:47 9.450000000e-07
15 P3:14 P8:44 1.492474000e-01
16 P3:14 P8:47 9.450000000e-07
17 P4:20 P8:44 1.502474000e-01
18 P4:20 P8:47 9.450000000e-07
19 P5:24 P8:42 1.212000000e-01
20 P5:26 P8:44 1.512474000e-01
21 P5:26 P8:47 9.450000000e-07
22 P6:32 P8:44 1.522474000e-01
23 P6:32 P8:47 9.450000000e-07
24 P7:38 P8:44 1.532474000e-01
25 P7:38 P8:47 9.450000000e-07
26 P8:44 P9:50 1.532474000e-01
27 P8:44 P9:53 9.450000000e-07
*RES
1 P8:42 P8:44 4.284650000e+02
2 P8:44 P8:43 4.284650000e+02
3 P8:45 P8:47 2.164995000e+01
4 P8:47 P8:46 2.164995000e+01
5 P8:42 P8:45 1.000000000e+00
6 P8 P8:45 0.000000000e+00
*END

*D_NET P9 3.820134912e+00
*CONN
*P P9 B
*CAP
1 P9:50 3.279299724e-01
2 P9:53 4.557314475e-02
3 P10:56 P9:50 1.532474000e-01
4 P10:59 P9:50 9.450000000e-07
5 P11:62 P9:50 1.522474000e-01
6 P11:65 P9:50 9.450000000e-07
7 P12:68 P9:50 1.512474000e-01
8 P12:71 P9:50 9.450000000e-07
9 P1:0 P9:48 1.791900000e+00
10 P1:2 P9:50 1.462474000e-01
11 P1:2 P9:53 9.450000000e-07
12 P2:8 P9:50 1.472474000e-01
13 P2:8 P9:53 9.450000000e-07
14 P3:14 P9:50 1.482474000e-01
15 P3:14 P9:53 9.450000000e-07
16 P4:20 P9:50 1.492474000e-01
17 P4:20 P9:53 9.450000000e-07
18 P5:26 P9:50 1.502474000e-01
19 P5:26 P9:53 9.450000000e-07
20 P6:32 P9:50 1.512474000e-01
21 P6:32 P9:53 9.450000000e-07
22 P7:38 P9:50 1.522474000e-01
23 P7:38 P9:53 9.450000000e-07
24 P8:44 P9:50 1.532474000e-01
25 P8:44 P9:53 9.450000000e-07
*RES
1 P9:48 P9:50 4.284650000e+02
2 P9:50 P9:49 4.284650000e+02
3 P9:51 P9:53 2.164995000e+01
4 P9:53 P9:52 2.164995000e+01
5 P9:48 P9:51 1.000000000e+00
6 P9 P9:51 0.000000000e+00
*END

